AtomicCoordinatesFormat Ang
%block AtomicCoordinatesAndAtomicSpecies
2.13619600  2.71333300  -0.00000000  1  1  Au
0.42723900  2.71333300  2.41683000  1  2  Au
1.28171800  1.23333300  4.83366000  1  3  Au
2.13619600  2.71333300  7.25049000  1  4  Au
0.42723900  2.71333300  9.66732000  1  5  Au
1.28171800  1.23333300  12.08415000  1  6  Au
2.13619600  5.67333300  -0.00000000  1  7  Au
0.42723900  5.67333300  2.41683000  1  8  Au
1.28171800  4.19333300  4.83366000  1  9  Au
2.13619600  5.67333300  7.25049000  1  10  Au
0.42723900  5.67333300  9.66732000  1  11  Au
1.28171800  4.19333300  12.08415000  1  12  Au
2.13619600  8.63333300  -0.00000000  1  13  Au
0.42723900  8.63333300  2.41683000  1  14  Au
1.28171800  7.15333300  4.83366000  1  15  Au
2.13619600  8.63333300  7.25049000  1  16  Au
0.42723900  8.63333300  9.66732000  1  17  Au
1.28171800  7.15333300  12.08415000  1  18  Au
4.69963100  4.19333300  -0.00000000  1  19  Au
2.99067400  4.19333300  2.41683000  1  20  Au
3.84515300  2.71333300  4.83366000  1  21  Au
4.69963100  4.19333300  7.25049000  1  22  Au
2.99067400  4.19333300  9.66732000  1  23  Au
3.84515300  2.71333300  12.08415000  1  24  Au
4.69963100  7.15333300  -0.00000000  1  25  Au
2.99067400  7.15333300  2.41683000  1  26  Au
3.84515300  5.67333300  4.83366000  1  27  Au
4.69963100  7.15333300  7.25049000  1  28  Au
2.99067400  7.15333300  9.66732000  1  29  Au
3.84515300  5.67333300  12.08415000  1  30  Au
4.69963100  10.11333300  -0.00000000  1  31  Au
2.99067400  10.11333300  2.41683000  1  32  Au
3.84515300  8.63333300  4.83366000  1  33  Au
4.69963100  10.11333300  7.25049000  1  34  Au
2.99067400  10.11333300  9.66732000  1  35  Au
3.84515300  8.63333300  12.08415000  1  36  Au
7.26306600  5.67333300  -0.00000000  1  37  Au
5.55411000  5.67333300  2.41683000  1  38  Au
6.40858800  4.19333300  4.83366000  1  39  Au
7.26306600  5.67333300  7.25049000  1  40  Au
5.55411000  5.67333300  9.66732000  1  41  Au
6.40858800  4.19333300  12.08415000  1  42  Au
7.26306600  8.63333300  -0.00000000  1  43  Au
5.55411000  8.63333300  2.41683000  1  44  Au
6.40858800  7.15333300  4.83366000  1  45  Au
7.26306600  8.63333300  7.25049000  1  46  Au
5.55411000  8.63333300  9.66732000  1  47  Au
6.40858800  7.15333300  12.08415000  1  48  Au
7.26306600  11.59333300  -0.00000000  1  49  Au
5.55411000  11.59333300  2.41683000  1  50  Au
6.40858800  10.11333300  4.83366000  1  51  Au
7.26306600  11.59333300  7.25049000  1  52  Au
5.55411000  11.59333300  9.66732000  1  53  Au
6.40858800  10.11333300  12.08415000  1  54  Au
2.13619600  2.71333300  14.50098000  1  55  Au
0.42723900  2.71333300  16.91781000  1  56  Au
1.28171800  1.23333300  19.33464000  1  57  Au
2.13619600  5.67333300  14.50098000  1  58  Au
0.42723900  5.67333300  16.91781000  1  59  Au
1.28171800  4.19333300  19.33464000  1  60  Au
2.13619600  8.63333300  14.50098000  1  61  Au
0.42723900  8.63333300  16.91781000  1  62  Au
1.28171800  7.15333300  19.33464000  1  63  Au
4.69963100  4.19333300  14.50098000  1  64  Au
2.99067400  4.19333300  16.91781000  1  65  Au
3.84515300  2.71333300  19.33464000  1  66  Au
4.69963100  7.15333300  14.50098000  1  67  Au
2.99067400  7.15333300  16.91781000  1  68  Au
3.84515300  5.67333300  19.33464000  1  69  Au
4.69963100  10.11333300  14.50098000  1  70  Au
2.99067400  10.11333300  16.91781000  1  71  Au
3.84515300  8.63333300  19.33464000  1  72  Au
7.26306600  5.67333300  14.50098000  1  73  Au
5.55411000  5.67333300  16.91781000  1  74  Au
6.40858800  4.19333300  19.33464000  1  75  Au
7.26306600  8.63333300  14.50098000  1  76  Au
5.55411000  8.63333300  16.91781000  1  77  Au
6.40858800  7.15333300  19.33464000  1  78  Au
7.26306600  11.59333300  14.50098000  1  79  Au
5.55411000  11.59333300  16.91781000  1  80  Au
6.40858800  10.11333300  19.33464000  1  81  Au
3.79507500  2.17770200  23.57468900  2  82  O
4.22743700  3.02037900  23.25870000  3  83  H
2.83937400  2.18436900  23.20787700  3  84  H
5.13092700  4.43030200  27.15122100  2  85  O
4.68598500  3.59547000  26.81237200  3  86  H
6.07928600  4.41320700  26.81821200  3  87  H
5.04775600  4.46609200  22.73596300  2  88  O
4.58757700  5.32127100  23.04437500  3  89  H
5.01650900  4.48422400  21.75644300  3  90  H
3.84755600  2.20605200  26.28296200  2  91  O
3.82178100  2.18688200  25.27909400  3  92  H
4.33144500  1.37455600  26.57156500  3  93  H
3.83132200  6.65195200  23.56964000  2  94  O
4.30228800  7.48667600  23.28800000  3  95  H
3.81643000  6.65370300  24.57820600  3  96  H
5.14998200  8.86501900  27.13649200  2  97  O
4.68755100  8.03564300  26.81251900  3  98  H
6.08854300  8.84129400  26.77713500  3  99  H
5.10679000  8.92755100  22.73651800  2  100  O
4.59963800  9.76244900  23.02878200  3  101  H
5.08085100  8.93064400  21.75643000  3  102  H
3.84217900  6.64472100  26.25603200  2  103  O
4.30112500  5.81387200  26.58544700  3  104  H
2.90174600  6.62333800  26.61423500  3  105  H
0.00610300  -0.00633300  23.53392300  2  106  O
0.00872700  -0.01887600  24.53720500  3  107  H
-0.94889300  0.01684500  23.25609400  3  108  H
1.26789500  2.20785500  27.14240900  2  109  O
2.22794000  2.19749100  26.84945100  3  110  H
1.27318400  2.22129900  28.14716800  3  111  H
1.35939800  2.18349400  22.60260500  2  112  O
0.83674700  1.40368300  22.94450500  3  113  H
0.87044900  2.99982900  22.89843100  3  114  H
-0.00079100  -0.01572000  26.25151000  2  115  O
0.49040600  0.79095000  26.59525800  3  116  H
0.48510400  -0.82241500  26.59907000  3  117  H
0.07425900  4.47092500  23.51853800  2  118  O
0.51719100  5.29677800  23.13630700  3  119  H
-0.87279100  4.50143400  23.21661200  3  120  H
1.29680900  6.65333400  27.15757500  2  121  O
0.82268000  5.82782200  26.83641800  3  122  H
1.27494000  6.63794700  28.16222400  3  123  H
1.25990400  6.64735600  22.49916200  2  124  O
2.18682800  6.67875800  22.85845400  3  125  H
0.80639000  7.45857500  22.86316900  3  126  H
0.01483900  4.44584000  26.22533200  2  127  O
0.49281600  3.61940000  26.53478300  3  128  H
0.05672600  4.45229500  25.21939600  3  129  H
3.84226200  2.21540300  30.74773100  2  130  O
4.28909300  3.04759800  30.40484100  3  131  H
2.89353700  2.23766000  30.41963600  3  132  H
5.12673400  4.43710500  34.36910000  2  133  O
4.68347100  3.60597400  34.01912700  3  134  H
6.07401600  4.42300100  34.03551700  3  135  H
5.12797500  4.43050300  29.85896400  2  136  O
4.65852300  5.26514300  30.16052900  3  137  H
5.12571900  4.44124200  28.85379400  3  138  H
3.85337900  2.22034600  33.46240800  2  139  O
3.85381400  2.21000600  32.45783800  3  140  H
4.32808400  1.38719900  33.76098600  3  141  H
3.83929000  6.66125500  30.73389000  2  142  O
4.31500900  7.49060200  30.42786000  3  143  H
3.85410700  6.66812800  31.73894400  3  144  H
5.12310000  8.87661600  34.36617700  2  145  O
4.66869200  8.04672400  34.03054600  3  146  H
6.06783000  8.84946800  34.02399300  3  147  H
5.13761700  8.88460200  29.85015300  2  148  O
4.65029400  9.71283900  30.14229700  3  149  H
5.14080500  8.88633300  28.84572300  3  150  H
3.85368300  6.65404400  33.44395300  2  151  O
4.30810500  5.82486900  33.78192900  3  152  H
2.91145200  6.63085200  33.79289600  3  153  H
0.00720200  0.00893000  30.74807100  2  154  O
-0.01241000  0.00280100  31.75287700  3  155  H
-0.94753300  0.00749900  30.43630300  3  156  H
1.27870000  2.20977200  34.34594900  2  157  O
2.23516400  2.20663500  34.04081500  3  158  H
1.29132400  2.21784900  35.35088200  3  159  H
1.27573300  2.23014500  29.85207900  2  160  O
0.78535900  1.42496000  30.20035500  3  161  H
0.78577200  3.03846400  30.19097400  3  162  H
-0.00516500  -0.00421600  33.45621400  2  163  O
0.49208600  0.79894900  33.80011900  3  164  H
0.48073100  -0.81421600  33.79738600  3  165  H
-0.00521300  4.44237200  30.77092200  2  166  O
0.45832600  5.26986900  30.43963900  3  167  H
-0.94532100  4.47375400  30.41682000  3  168  H
1.29683800  6.66278300  34.34865000  2  169  O
0.81744000  5.83512200  34.04196200  3  170  H
1.28287500  6.65199700  35.35330100  3  171  H
1.27392500  6.65531600  29.86424900  2  172  O
2.22025200  6.68613100  30.20199400  3  173  H
0.81612900  7.48264600  30.20330700  3  174  H
-0.00828700  4.44352400  33.47520600  2  175  O
0.48019000  3.61974700  33.77626700  3  176  H
-0.00391200  4.43389400  32.46965900  3  177  H
3.84030100  2.21964900  37.97898600  2  178  O
4.28871000  3.04994100  37.63349500  3  179  H
2.89432700  2.23964300  37.64351100  3  180  H
5.12611900  4.43209500  37.07991400  2  181  O
4.65669700  5.26602800  37.38335300  3  182  H
5.12076900  4.44286100  36.07488900  3  183  H
3.83528600  6.66007800  37.96058500  2  184  O
4.31101900  7.49053900  37.65741100  3  185  H
3.84790900  6.66577300  38.96543700  3  186  H
5.13182500  8.88550600  37.07993900  2  187  O
4.64749000  9.71352500  37.37692200  3  188  H
5.12284400  8.88911300  36.07529600  3  189  H
0.00914800  0.01045800  37.96340500  2  190  O
-0.00822300  0.00333100  38.96799800  3  191  H
-0.94641700  0.00984700  37.65467400  3  192  H
1.28022100  2.22825000  37.05732600  2  193  O
0.78909600  1.42445400  37.40782400  3  194  H
0.79027200  3.03694200  37.39488300  3  195  H
-0.00055600  4.44258000  37.98314300  2  196  O
0.46012000  5.26894900  37.64652900  3  197  H
-0.94257900  4.47356500  37.63477800  3  198  H
1.27731400  6.65881600  37.06122900  2  199  O
2.22017500  6.68629400  37.40829600  3  200  H
0.81840200  7.48289900  37.40523900  3  201  H
2.13619600  2.71333300  59.33949000  1  202  Au
0.42723900  2.71333300  61.75632000  1  203  Au
1.28171800  1.23333300  64.17315000  1  204  Au
2.13619600  5.67333300  59.33949000  1  205  Au
0.42723900  5.67333300  61.75632000  1  206  Au
1.28171800  4.19333300  64.17315000  1  207  Au
2.13619600  8.63333300  59.33949000  1  208  Au
0.42723900  8.63333300  61.75632000  1  209  Au
1.28171800  7.15333300  64.17315000  1  210  Au
4.69963100  4.19333300  59.33949000  1  211  Au
2.99067400  4.19333300  61.75632000  1  212  Au
3.84515300  2.71333300  64.17315000  1  213  Au
4.69963100  7.15333300  59.33949000  1  214  Au
2.99067400  7.15333300  61.75632000  1  215  Au
3.84515300  5.67333300  64.17315000  1  216  Au
4.69963100  10.11333300  59.33949000  1  217  Au
2.99067400  10.11333300  61.75632000  1  218  Au
3.84515300  8.63333300  64.17315000  1  219  Au
7.26306600  5.67333300  59.33949000  1  220  Au
5.55411000  5.67333300  61.75632000  1  221  Au
6.40858800  4.19333300  64.17315000  1  222  Au
7.26306600  8.63333300  59.33949000  1  223  Au
5.55411000  8.63333300  61.75632000  1  224  Au
6.40858800  7.15333300  64.17315000  1  225  Au
7.26306600  11.59333300  59.33949000  1  226  Au
5.55411000  11.59333300  61.75632000  1  227  Au
6.40858800  10.11333300  64.17315000  1  228  Au
2.13619600  2.71333300  66.58998000  1  229  Au
0.42723900  2.71333300  69.00681000  1  230  Au
1.28171800  1.23333300  71.42364000  1  231  Au
2.13619600  2.71333300  73.84047000  1  232  Au
0.42723900  2.71333300  76.25730000  1  233  Au
1.28171800  1.23333300  78.67413000  1  234  Au
2.13619600  5.67333300  66.58998000  1  235  Au
0.42723900  5.67333300  69.00681000  1  236  Au
1.28171800  4.19333300  71.42364000  1  237  Au
2.13619600  5.67333300  73.84047000  1  238  Au
0.42723900  5.67333300  76.25730000  1  239  Au
1.28171800  4.19333300  78.67413000  1  240  Au
2.13619600  8.63333300  66.58998000  1  241  Au
0.42723900  8.63333300  69.00681000  1  242  Au
1.28171800  7.15333300  71.42364000  1  243  Au
2.13619600  8.63333300  73.84047000  1  244  Au
0.42723900  8.63333300  76.25730000  1  245  Au
1.28171800  7.15333300  78.67413000  1  246  Au
4.69963100  4.19333300  66.58998000  1  247  Au
2.99067400  4.19333300  69.00681000  1  248  Au
3.84515300  2.71333300  71.42364000  1  249  Au
4.69963100  4.19333300  73.84047000  1  250  Au
2.99067400  4.19333300  76.25730000  1  251  Au
3.84515300  2.71333300  78.67413000  1  252  Au
4.69963100  7.15333300  66.58998000  1  253  Au
2.99067400  7.15333300  69.00681000  1  254  Au
3.84515300  5.67333300  71.42364000  1  255  Au
4.69963100  7.15333300  73.84047000  1  256  Au
2.99067400  7.15333300  76.25730000  1  257  Au
3.84515300  5.67333300  78.67413000  1  258  Au
4.69963100  10.11333300  66.58998000  1  259  Au
2.99067400  10.11333300  69.00681000  1  260  Au
3.84515300  8.63333300  71.42364000  1  261  Au
4.69963100  10.11333300  73.84047000  1  262  Au
2.99067400  10.11333300  76.25730000  1  263  Au
3.84515300  8.63333300  78.67413000  1  264  Au
7.26306600  5.67333300  66.58998000  1  265  Au
5.55411000  5.67333300  69.00681000  1  266  Au
6.40858800  4.19333300  71.42364000  1  267  Au
7.26306600  5.67333300  73.84047000  1  268  Au
5.55411000  5.67333300  76.25730000  1  269  Au
6.40858800  4.19333300  78.67413000  1  270  Au
7.26306600  8.63333300  66.58998000  1  271  Au
5.55411000  8.63333300  69.00681000  1  272  Au
6.40858800  7.15333300  71.42364000  1  273  Au
7.26306600  8.63333300  73.84047000  1  274  Au
5.55411000  8.63333300  76.25730000  1  275  Au
6.40858800  7.15333300  78.67413000  1  276  Au
7.26306600  11.59333300  66.58998000  1  277  Au
5.55411000  11.59333300  69.00681000  1  278  Au
6.40858800  10.11333300  71.42364000  1  279  Au
7.26306600  11.59333300  73.84047000  1  280  Au
5.55411000  11.59333300  76.25730000  1  281  Au
6.40858800  10.11333300  78.67413000  1  282  Au
%endblock AtomicCoordinatesAndAtomicSpecies
