SystemName          Ice_Au1
SystemLabel         Ice_Au1
LongOutput
WriteCoorXmol
WriteMDXmol
WriteMDHistory
NumberOfAtoms          120
NumberOfSpecies        2
xc.functional          GGA
xc.authors             PBE
%block ChemicalSpeciesLabel
  1  8  O
  2  1  H
%endblock ChemicalSpeciesLabel
%block AtomicMass
  2   2.0
%endblock AtomicMass
%Block PAO.Basis
O    3     -0.18361
 n=2   0   3   E    50.06241     5.0
    7.0   4.0  2.4
    1.00000     1.00000   1.0
 n=2   1   3   E  10.0   6.0
    7.0   4.0   2.2
    1.00000     1.00000 1.0
 n=3   2   1  E   50.0  0.0
    6.0
    1.00000
H    2      0.94703
 n=1   0   3   E   50.0   6.0
    7.0   4.0 2.0
    1.00000     1.00000  1.0
 n=2   1   1   E   1000.0     0.0
    6.0
    1.00000
%EndBlock PAO.Basis
WriteMullikenPop   2
WriteWaveFunctions true
LatticeConstant       8.88 Ang    # Lattice constant alat (3% larger)
%block LatticeVectors
    0.00000000    1.00000000    0.00000000
    0.86602540    0.50000000    0.00000000
    0.00000000    0.00000000    9.1318648649
%endblock LatticeVectors
kgrid_cutoff   10.0 Ang
MeshCutoff           1000.0 Ry       # Mesh cutoff. real space mesh
# SCF options
MaxSCFIterations      1000            # Maximum number of SCF iter
DM.MixingWeight       0.01           # New DM amount for next SCF cycle
DM.Tolerance          1.d-9         # Tolerance in maximum difference
DM.NumberPulay         3
DM.UseSaveDM
SolutionMethod        diagon        # OrderN or Diagon
ElectronicTemperature  5 meV        # Temp. for Fermi smearing
AtomicCoordinatesFormat             Ang
AtomicCoordinatesAndAtomicSpecies   <Ice_Au_pos.fdf
MD.TypeOfRun  CG
MD.VariableCell  .false.
#MD.NumCGsteps     100
MD.MaxStressTol   0.01 GPa
#MD.FIRE.TimeStep  0.5 fs
MD.MaxForceTol  0.04 eV/Ang
#MD.UseSaveCG       true
#MD.UseSaveXV       true

SaveTotalPotential  true
SaveElectrostaticPotential  true
SaveTotalCharge  true
SaveRho          true

%block ExternalElectricField
0.000 0.000 0.025 V/Ang
%endblock ExternalElectricField

%block ProjectedDensityOfStates
 -20.0 10.0 0.100 3001 eV
%endblock ProjectedDensityOfStates

SlabDipoleCorrection  true
%block Geometry.Constraints
  Z 79
%endblock Geometry.Constraints

Siesta2Wannier90.WriteMmn    true
Siesta2Wannier90.WriteAmn    true
Siesta2Wannier90.WriteEig    true
Siesta2Wannier90.WriteUnk    true
#Siesta2Wannier90.NumberOfBands
Siesta2Wannier90.UnkGrid1    20
Siesta2Wannier90.UnkGrid2    20
Siesta2Wannier90.UnkGrid3    20
