AtomicCoordinatesFormat Ang
%block AtomicCoordinatesAndAtomicSpecies
2.13619600  2.71333300  -0.00000000  1  1  Au
0.42723900  2.71333300  2.41683000  1  2  Au
1.28171800  1.23333300  4.83366000  1  3  Au
2.13619600  2.71333300  7.25049000  1  4  Au
0.42723900  2.71333300  9.66732000  1  5  Au
1.28171800  1.23333300  12.08415000  1  6  Au
2.13619600  5.67333300  -0.00000000  1  7  Au
0.42723900  5.67333300  2.41683000  1  8  Au
1.28171800  4.19333300  4.83366000  1  9  Au
2.13619600  5.67333300  7.25049000  1  10  Au
0.42723900  5.67333300  9.66732000  1  11  Au
1.28171800  4.19333300  12.08415000  1  12  Au
2.13619600  8.63333300  -0.00000000  1  13  Au
0.42723900  8.63333300  2.41683000  1  14  Au
1.28171800  7.15333300  4.83366000  1  15  Au
2.13619600  8.63333300  7.25049000  1  16  Au
0.42723900  8.63333300  9.66732000  1  17  Au
1.28171800  7.15333300  12.08415000  1  18  Au
4.69963100  4.19333300  -0.00000000  1  19  Au
2.99067400  4.19333300  2.41683000  1  20  Au
3.84515300  2.71333300  4.83366000  1  21  Au
4.69963100  4.19333300  7.25049000  1  22  Au
2.99067400  4.19333300  9.66732000  1  23  Au
3.84515300  2.71333300  12.08415000  1  24  Au
4.69963100  7.15333300  -0.00000000  1  25  Au
2.99067400  7.15333300  2.41683000  1  26  Au
3.84515300  5.67333300  4.83366000  1  27  Au
4.69963100  7.15333300  7.25049000  1  28  Au
2.99067400  7.15333300  9.66732000  1  29  Au
3.84515300  5.67333300  12.08415000  1  30  Au
4.69963100  10.11333300  -0.00000000  1  31  Au
2.99067400  10.11333300  2.41683000  1  32  Au
3.84515300  8.63333300  4.83366000  1  33  Au
4.69963100  10.11333300  7.25049000  1  34  Au
2.99067400  10.11333300  9.66732000  1  35  Au
3.84515300  8.63333300  12.08415000  1  36  Au
7.26306600  5.67333300  -0.00000000  1  37  Au
5.55411000  5.67333300  2.41683000  1  38  Au
6.40858800  4.19333300  4.83366000  1  39  Au
7.26306600  5.67333300  7.25049000  1  40  Au
5.55411000  5.67333300  9.66732000  1  41  Au
6.40858800  4.19333300  12.08415000  1  42  Au
7.26306600  8.63333300  -0.00000000  1  43  Au
5.55411000  8.63333300  2.41683000  1  44  Au
6.40858800  7.15333300  4.83366000  1  45  Au
7.26306600  8.63333300  7.25049000  1  46  Au
5.55411000  8.63333300  9.66732000  1  47  Au
6.40858800  7.15333300  12.08415000  1  48  Au
7.26306600  11.59333300  -0.00000000  1  49  Au
5.55411000  11.59333300  2.41683000  1  50  Au
6.40858800  10.11333300  4.83366000  1  51  Au
7.26306600  11.59333300  7.25049000  1  52  Au
5.55411000  11.59333300  9.66732000  1  53  Au
6.40858800  10.11333300  12.08415000  1  54  Au
2.13619600  2.71333300  14.50098000  1  55  Au
0.42723900  2.71333300  16.91781000  1  56  Au
1.28171800  1.23333300  19.33464000  1  57  Au
2.13619600  5.67333300  14.50098000  1  58  Au
0.42723900  5.67333300  16.91781000  1  59  Au
1.28171800  4.19333300  19.33464000  1  60  Au
2.13619600  8.63333300  14.50098000  1  61  Au
0.42723900  8.63333300  16.91781000  1  62  Au
1.28171800  7.15333300  19.33464000  1  63  Au
4.69963100  4.19333300  14.50098000  1  64  Au
2.99067400  4.19333300  16.91781000  1  65  Au
3.84515300  2.71333300  19.33464000  1  66  Au
4.69963100  7.15333300  14.50098000  1  67  Au
2.99067400  7.15333300  16.91781000  1  68  Au
3.84515300  5.67333300  19.33464000  1  69  Au
4.69963100  10.11333300  14.50098000  1  70  Au
2.99067400  10.11333300  16.91781000  1  71  Au
3.84515300  8.63333300  19.33464000  1  72  Au
7.26306600  5.67333300  14.50098000  1  73  Au
5.55411000  5.67333300  16.91781000  1  74  Au
6.40858800  4.19333300  19.33464000  1  75  Au
7.26306600  8.63333300  14.50098000  1  76  Au
5.55411000  8.63333300  16.91781000  1  77  Au
6.40858800  7.15333300  19.33464000  1  78  Au
7.26306600  11.59333300  14.50098000  1  79  Au
5.55411000  11.59333300  16.91781000  1  80  Au
6.40858800  10.11333300  19.33464000  1  81  Au
2.13619600  2.71333300  59.33949000  1  82  Au
0.42723900  2.71333300  61.75632000  1  83  Au
1.28171800  1.23333300  64.17315000  1  84  Au
2.13619600  5.67333300  59.33949000  1  85  Au
0.42723900  5.67333300  61.75632000  1  86  Au
1.28171800  4.19333300  64.17315000  1  87  Au
2.13619600  8.63333300  59.33949000  1  88  Au
0.42723900  8.63333300  61.75632000  1  89  Au
1.28171800  7.15333300  64.17315000  1  90  Au
4.69963100  4.19333300  59.33949000  1  91  Au
2.99067400  4.19333300  61.75632000  1  92  Au
3.84515300  2.71333300  64.17315000  1  93  Au
4.69963100  7.15333300  59.33949000  1  94  Au
2.99067400  7.15333300  61.75632000  1  95  Au
3.84515300  5.67333300  64.17315000  1  96  Au
4.69963100  10.11333300  59.33949000  1  97  Au
2.99067400  10.11333300  61.75632000  1  98  Au
3.84515300  8.63333300  64.17315000  1  99  Au
7.26306600  5.67333300  59.33949000  1  100  Au
5.55411000  5.67333300  61.75632000  1  101  Au
6.40858800  4.19333300  64.17315000  1  102  Au
7.26306600  8.63333300  59.33949000  1  103  Au
5.55411000  8.63333300  61.75632000  1  104  Au
6.40858800  7.15333300  64.17315000  1  105  Au
7.26306600  11.59333300  59.33949000  1  106  Au
5.55411000  11.59333300  61.75632000  1  107  Au
6.40858800  10.11333300  64.17315000  1  108  Au
2.13619600  2.71333300  66.58998000  1  109  Au
0.42723900  2.71333300  69.00681000  1  110  Au
1.28171800  1.23333300  71.42364000  1  111  Au
2.13619600  2.71333300  73.84047000  1  112  Au
0.42723900  2.71333300  76.25730000  1  113  Au
1.28171800  1.23333300  78.67413000  1  114  Au
2.13619600  5.67333300  66.58998000  1  115  Au
0.42723900  5.67333300  69.00681000  1  116  Au
1.28171800  4.19333300  71.42364000  1  117  Au
2.13619600  5.67333300  73.84047000  1  118  Au
0.42723900  5.67333300  76.25730000  1  119  Au
1.28171800  4.19333300  78.67413000  1  120  Au
2.13619600  8.63333300  66.58998000  1  121  Au
0.42723900  8.63333300  69.00681000  1  122  Au
1.28171800  7.15333300  71.42364000  1  123  Au
2.13619600  8.63333300  73.84047000  1  124  Au
0.42723900  8.63333300  76.25730000  1  125  Au
1.28171800  7.15333300  78.67413000  1  126  Au
4.69963100  4.19333300  66.58998000  1  127  Au
2.99067400  4.19333300  69.00681000  1  128  Au
3.84515300  2.71333300  71.42364000  1  129  Au
4.69963100  4.19333300  73.84047000  1  130  Au
2.99067400  4.19333300  76.25730000  1  131  Au
3.84515300  2.71333300  78.67413000  1  132  Au
4.69963100  7.15333300  66.58998000  1  133  Au
2.99067400  7.15333300  69.00681000  1  134  Au
3.84515300  5.67333300  71.42364000  1  135  Au
4.69963100  7.15333300  73.84047000  1  136  Au
2.99067400  7.15333300  76.25730000  1  137  Au
3.84515300  5.67333300  78.67413000  1  138  Au
4.69963100  10.11333300  66.58998000  1  139  Au
2.99067400  10.11333300  69.00681000  1  140  Au
3.84515300  8.63333300  71.42364000  1  141  Au
4.69963100  10.11333300  73.84047000  1  142  Au
2.99067400  10.11333300  76.25730000  1  143  Au
3.84515300  8.63333300  78.67413000  1  144  Au
7.26306600  5.67333300  66.58998000  1  145  Au
5.55411000  5.67333300  69.00681000  1  146  Au
6.40858800  4.19333300  71.42364000  1  147  Au
7.26306600  5.67333300  73.84047000  1  148  Au
5.55411000  5.67333300  76.25730000  1  149  Au
6.40858800  4.19333300  78.67413000  1  150  Au
7.26306600  8.63333300  66.58998000  1  151  Au
5.55411000  8.63333300  69.00681000  1  152  Au
6.40858800  7.15333300  71.42364000  1  153  Au
7.26306600  8.63333300  73.84047000  1  154  Au
5.55411000  8.63333300  76.25730000  1  155  Au
6.40858800  7.15333300  78.67413000  1  156  Au
7.26306600  11.59333300  66.58998000  1  157  Au
5.55411000  11.59333300  69.00681000  1  158  Au
6.40858800  10.11333300  71.42364000  1  159  Au
7.26306600  11.59333300  73.84047000  1  160  Au
5.55411000  11.59333300  76.25730000  1  161  Au
6.40858800  10.11333300  78.67413000  1  162  Au
%endblock AtomicCoordinatesAndAtomicSpecies
