AtomicCoordinatesFormat Ang
%block AtomicCoordinatesAndAtomicSpecies
2.13619600  2.71333300  -0.00000000  1  1  Au
0.42723900  2.71333300  2.41683000  1  2  Au
1.28171800  1.23333300  4.83366000  1  3  Au
2.13619600  2.71333300  7.25049000  1  4  Au
0.42723900  2.71333300  9.66732000  1  5  Au
1.28171800  1.23333300  12.08415000  1  6  Au
2.13619600  5.67333300  -0.00000000  1  7  Au
0.42723900  5.67333300  2.41683000  1  8  Au
1.28171800  4.19333300  4.83366000  1  9  Au
2.13619600  5.67333300  7.25049000  1  10  Au
0.42723900  5.67333300  9.66732000  1  11  Au
1.28171800  4.19333300  12.08415000  1  12  Au
2.13619600  8.63333300  -0.00000000  1  13  Au
0.42723900  8.63333300  2.41683000  1  14  Au
1.28171800  7.15333300  4.83366000  1  15  Au
2.13619600  8.63333300  7.25049000  1  16  Au
0.42723900  8.63333300  9.66732000  1  17  Au
1.28171800  7.15333300  12.08415000  1  18  Au
4.69963100  4.19333300  -0.00000000  1  19  Au
2.99067400  4.19333300  2.41683000  1  20  Au
3.84515300  2.71333300  4.83366000  1  21  Au
4.69963100  4.19333300  7.25049000  1  22  Au
2.99067400  4.19333300  9.66732000  1  23  Au
3.84515300  2.71333300  12.08415000  1  24  Au
4.69963100  7.15333300  -0.00000000  1  25  Au
2.99067400  7.15333300  2.41683000  1  26  Au
3.84515300  5.67333300  4.83366000  1  27  Au
4.69963100  7.15333300  7.25049000  1  28  Au
2.99067400  7.15333300  9.66732000  1  29  Au
3.84515300  5.67333300  12.08415000  1  30  Au
4.69963100  10.11333300  -0.00000000  1  31  Au
2.99067400  10.11333300  2.41683000  1  32  Au
3.84515300  8.63333300  4.83366000  1  33  Au
4.69963100  10.11333300  7.25049000  1  34  Au
2.99067400  10.11333300  9.66732000  1  35  Au
3.84515300  8.63333300  12.08415000  1  36  Au
7.26306600  5.67333300  -0.00000000  1  37  Au
5.55411000  5.67333300  2.41683000  1  38  Au
6.40858800  4.19333300  4.83366000  1  39  Au
7.26306600  5.67333300  7.25049000  1  40  Au
5.55411000  5.67333300  9.66732000  1  41  Au
6.40858800  4.19333300  12.08415000  1  42  Au
7.26306600  8.63333300  -0.00000000  1  43  Au
5.55411000  8.63333300  2.41683000  1  44  Au
6.40858800  7.15333300  4.83366000  1  45  Au
7.26306600  8.63333300  7.25049000  1  46  Au
5.55411000  8.63333300  9.66732000  1  47  Au
6.40858800  7.15333300  12.08415000  1  48  Au
7.26306600  11.59333300  -0.00000000  1  49  Au
5.55411000  11.59333300  2.41683000  1  50  Au
6.40858800  10.11333300  4.83366000  1  51  Au
7.26306600  11.59333300  7.25049000  1  52  Au
5.55411000  11.59333300  9.66732000  1  53  Au
6.40858800  10.11333300  12.08415000  1  54  Au
2.13619600  2.71333300  14.50098000  1  55  Au
0.42723900  2.71333300  16.91781000  1  56  Au
1.28171800  1.23333300  19.33464000  1  57  Au
2.13619600  5.67333300  14.50098000  1  58  Au
0.42723900  5.67333300  16.91781000  1  59  Au
1.28171800  4.19333300  19.33464000  1  60  Au
2.13619600  8.63333300  14.50098000  1  61  Au
0.42723900  8.63333300  16.91781000  1  62  Au
1.28171800  7.15333300  19.33464000  1  63  Au
4.69963100  4.19333300  14.50098000  1  64  Au
2.99067400  4.19333300  16.91781000  1  65  Au
3.84515300  2.71333300  19.33464000  1  66  Au
4.69963100  7.15333300  14.50098000  1  67  Au
2.99067400  7.15333300  16.91781000  1  68  Au
3.84515300  5.67333300  19.33464000  1  69  Au
4.69963100  10.11333300  14.50098000  1  70  Au
2.99067400  10.11333300  16.91781000  1  71  Au
3.84515300  8.63333300  19.33464000  1  72  Au
7.26306600  5.67333300  14.50098000  1  73  Au
5.55411000  5.67333300  16.91781000  1  74  Au
6.40858800  4.19333300  19.33464000  1  75  Au
7.26306600  8.63333300  14.50098000  1  76  Au
5.55411000  8.63333300  16.91781000  1  77  Au
6.40858800  7.15333300  19.33464000  1  78  Au
7.26306600  11.59333300  14.50098000  1  79  Au
5.55411000  11.59333300  16.91781000  1  80  Au
6.40858800  10.11333300  19.33464000  1  81  Au
3.80182900  2.30250200  22.01174100  2  82  O
4.30923700  3.07549200  22.41598500  3  83  H
4.30279100  1.47401200  22.27208200  3  84  H
5.09027500  4.40335300  23.07152100  2  85  O
6.06227000  4.41235300  22.78952900  3  86  H
5.07431800  4.40484500  24.07438700  3  87  H
5.04688000  4.43048500  25.78281400  2  88  O
4.54675500  3.62553900  26.11541000  3  89  H
4.54803800  5.24176100  26.10137800  3  90  H
3.76518300  2.20047500  26.63117700  2  91  O
3.75977900  2.18881100  27.63217300  3  92  H
2.80424800  2.20901500  26.33515900  3  93  H
3.77464400  2.21022400  29.36789300  2  94  O
4.27199500  3.01798000  29.69490600  3  95  H
4.27269800  1.40831400  29.70953700  3  96  H
5.06425900  4.44089200  30.24531000  2  97  O
6.02568100  4.44084200  29.94977300  3  98  H
5.07073200  4.44188100  31.24609900  3  99  H
5.04967100  4.44065200  32.98370300  2  100  O
4.55144500  3.63589700  33.31709500  3  101  H
4.55124600  5.24506800  33.31769800  3  102  H
3.75677800  2.21963800  33.87271700  2  103  O
3.74862900  2.21999300  34.87386700  3  104  H
2.79617000  2.22017700  33.57348900  3  105  H
3.77356100  2.22024500  36.60540600  2  106  O
4.27292400  3.02539800  36.93678900  3  107  H
4.27296500  1.41517900  36.93695700  3  108  H
5.06652800  4.44033000  37.48751600  2  109  O
6.02770000  4.44027500  37.18948800  3  110  H
5.07403200  4.44033300  38.48859400  3  111  H
3.78930700  6.54297200  22.10071800  2  112  O
4.29869100  7.37041900  22.33471400  3  113  H
4.30407400  5.76950500  22.48677000  3  114  H
5.08653900  8.88438500  22.84412900  2  115  O
6.06104000  8.88036800  22.58945000  3  116  H
5.06245500  8.89105600  23.84306600  3  117  H
5.04760600  8.88422000  25.62545500  2  118  O
4.56204700  8.08201900  25.97927100  3  119  H
4.56091000  9.68114700  25.98936900  3  120  H
3.77139400  6.67487800  26.61436000  2  121  O
3.76910500  6.68754500  27.61507500  3  122  H
2.80795500  6.66753800  26.32569500  3  123  H
3.77629600  6.66912900  29.35502200  2  124  O
4.27261200  7.47062300  29.69949000  3  125  H
4.27208200  5.86211600  29.68567800  3  126  H
5.06816500  8.87874800  30.26216100  2  127  O
6.02640600  8.87905400  29.95553400  3  128  H
5.08008000  8.87794100  31.26352300  3  129  H
5.05095100  8.87973700  32.99115600  2  130  O
4.55110400  8.07480600  33.32262200  3  131  H
4.55126300  9.68501000  33.32194700  3  132  H
3.75642300  6.66076100  33.87288200  2  133  O
3.74782600  6.66038400  34.87403000  3  134  H
2.79607000  6.66033100  33.57274200  3  135  H
3.77348000  6.66024800  36.60530300  2  136  O
4.27287200  7.46536100  36.93678900  3  137  H
4.27295000  5.85513300  36.93667600  3  138  H
5.06646100  8.88023400  37.48758600  2  139  O
6.02763800  8.88024700  37.18965800  3  140  H
5.07396400  8.88025300  38.48867000  3  141  H
-0.00512900  4.43720900  22.09006300  2  142  O
0.48037200  5.23877100  22.44866700  3  143  H
0.47429100  3.63060500  22.44277300  3  144  H
1.26378600  6.64749700  23.02250500  2  145  O
2.22465500  6.62052500  22.72404900  3  146  H
1.26282900  6.65340100  24.02402900  3  147  H
1.21120700  6.66096400  25.75020500  2  148  O
0.70541000  5.85606900  26.07090800  3  149  H
0.71206700  7.46634900  26.08116300  3  150  H
-0.10605200  4.43601300  26.59338900  2  151  O
-0.13204500  4.43447200  27.59333200  3  152  H
-1.05744500  4.43882000  26.26740800  3  153  H
-0.08276600  4.43844300  29.33940400  2  154  O
0.41741600  5.24224500  29.67136900  3  155  H
0.41726900  3.63585500  29.67491100  3  156  H
1.22036100  6.65395100  30.24217100  2  157  O
2.18091100  6.65805600  29.94334000  3  158  H
1.22841600  6.65207800  31.24290900  3  159  H
1.20513300  6.65856300  32.98144200  2  160  O
0.70692700  5.85460900  33.31716600  3  161  H
0.70702100  7.46364200  33.31424900  3  162  H
-0.08714100  4.44056800  33.87482900  2  163  O
-0.09458800  4.44073400  34.87605600  3  164  H
-1.04821400  4.44032800  33.57703900  3  165  H
-0.07142000  4.44030100  36.60619900  2  166  O
0.42798300  5.24547500  36.93758200  3  167  H
0.42802400  3.63511100  36.93749900  3  168  H
1.22145100  6.66018500  37.48769100  2  169  O
2.18258700  6.66020700  37.18959700  3  170  H
1.22901800  6.66023700  38.48877500  3  171  H
-0.09750800  -0.01958500  22.19962300  2  172  O
0.42283600  0.78616100  22.48317800  3  173  H
0.43134800  -0.81842200  22.49190400  3  174  H
1.26559900  2.21429100  23.00043600  2  175  O
2.21707700  2.23584600  22.68480200  3  176  H
1.27801400  2.21362900  24.00210200  3  177  H
1.21552700  2.21696400  25.73047900  2  178  O
0.71510200  1.41345600  26.06445700  3  179  H
0.70980100  3.02150900  26.05209500  3  180  H
-0.07889100  0.00349000  26.63654200  2  181  O
-0.08098900  0.00512400  27.63799900  3  182  H
-1.04230500  -0.00053900  26.34791100  3  183  H
-0.06739700  0.00183600  29.36846300  2  184  O
0.43014300  0.80687200  29.70288700  3  185  H
0.43062600  -0.80421900  29.69935600  3  186  H
1.21834300  2.22657000  30.24893200  2  187  O
2.17968600  2.22209500  29.95257600  3  188  H
1.22466300  2.22846300  31.24993000  3  189  H
1.20406600  2.22194000  32.98485000  2  190  O
0.70596200  1.41656300  33.31719400  3  191  H
0.70582700  3.02614600  33.32017600  3  192  H
-0.08750600  -0.00010500  33.87153000  2  193  O
-0.09546300  -0.00029700  34.87260400  3  194  H
-1.04818100  0.00017000  33.57274900  3  195  H
-0.07160500  0.00019900  36.60532500  2  196  O
0.42768100  0.80531700  36.93687100  3  197  H
0.42775800  -0.80482300  36.93699600  3  198  H
1.22143100  2.22037900  37.48768000  2  199  O
2.18258200  2.22031500  37.18961800  3  200  H
1.22898400  2.22035000  38.48876800  3  201  H
2.13619600  2.71333300  58.96779000  1  202  Au
0.42723900  2.71333300  61.38462000  1  203  Au
1.28171800  1.23333300  63.80145000  1  204  Au
2.13619600  5.67333300  58.96779000  1  205  Au
0.42723900  5.67333300  61.38462000  1  206  Au
1.28171800  4.19333300  63.80145000  1  207  Au
2.13619600  8.63333300  58.96779000  1  208  Au
0.42723900  8.63333300  61.38462000  1  209  Au
1.28171800  7.15333300  63.80145000  1  210  Au
4.69963100  4.19333300  58.96779000  1  211  Au
2.99067400  4.19333300  61.38462000  1  212  Au
3.84515300  2.71333300  63.80145000  1  213  Au
4.69963100  7.15333300  58.96779000  1  214  Au
2.99067400  7.15333300  61.38462000  1  215  Au
3.84515300  5.67333300  63.80145000  1  216  Au
4.69963100  10.11333300  58.96779000  1  217  Au
2.99067400  10.11333300  61.38462000  1  218  Au
3.84515300  8.63333300  63.80145000  1  219  Au
7.26306600  5.67333300  58.96779000  1  220  Au
5.55411000  5.67333300  61.38462000  1  221  Au
6.40858800  4.19333300  63.80145000  1  222  Au
7.26306600  8.63333300  58.96779000  1  223  Au
5.55411000  8.63333300  61.38462000  1  224  Au
6.40858800  7.15333300  63.80145000  1  225  Au
7.26306600  11.59333300  58.96779000  1  226  Au
5.55411000  11.59333300  61.38462000  1  227  Au
6.40858800  10.11333300  63.80145000  1  228  Au
2.13619600  2.71333300  66.21828000  1  229  Au
0.42723900  2.71333300  68.63511000  1  230  Au
1.28171800  1.23333300  71.05194000  1  231  Au
2.13619600  2.71333300  73.46877000  1  232  Au
0.42723900  2.71333300  75.88560000  1  233  Au
1.28171800  1.23333300  78.30243000  1  234  Au
2.13619600  5.67333300  66.21828000  1  235  Au
0.42723900  5.67333300  68.63511000  1  236  Au
1.28171800  4.19333300  71.05194000  1  237  Au
2.13619600  5.67333300  73.46877000  1  238  Au
0.42723900  5.67333300  75.88560000  1  239  Au
1.28171800  4.19333300  78.30243000  1  240  Au
2.13619600  8.63333300  66.21828000  1  241  Au
0.42723900  8.63333300  68.63511000  1  242  Au
1.28171800  7.15333300  71.05194000  1  243  Au
2.13619600  8.63333300  73.46877000  1  244  Au
0.42723900  8.63333300  75.88560000  1  245  Au
1.28171800  7.15333300  78.30243000  1  246  Au
4.69963100  4.19333300  66.21828000  1  247  Au
2.99067400  4.19333300  68.63511000  1  248  Au
3.84515300  2.71333300  71.05194000  1  249  Au
4.69963100  4.19333300  73.46877000  1  250  Au
2.99067400  4.19333300  75.88560000  1  251  Au
3.84515300  2.71333300  78.30243000  1  252  Au
4.69963100  7.15333300  66.21828000  1  253  Au
2.99067400  7.15333300  68.63511000  1  254  Au
3.84515300  5.67333300  71.05194000  1  255  Au
4.69963100  7.15333300  73.46877000  1  256  Au
2.99067400  7.15333300  75.88560000  1  257  Au
3.84515300  5.67333300  78.30243000  1  258  Au
4.69963100  10.11333300  66.21828000  1  259  Au
2.99067400  10.11333300  68.63511000  1  260  Au
3.84515300  8.63333300  71.05194000  1  261  Au
4.69963100  10.11333300  73.46877000  1  262  Au
2.99067400  10.11333300  75.88560000  1  263  Au
3.84515300  8.63333300  78.30243000  1  264  Au
7.26306600  5.67333300  66.21828000  1  265  Au
5.55411000  5.67333300  68.63511000  1  266  Au
6.40858800  4.19333300  71.05194000  1  267  Au
7.26306600  5.67333300  73.46877000  1  268  Au
5.55411000  5.67333300  75.88560000  1  269  Au
6.40858800  4.19333300  78.30243000  1  270  Au
7.26306600  8.63333300  66.21828000  1  271  Au
5.55411000  8.63333300  68.63511000  1  272  Au
6.40858800  7.15333300  71.05194000  1  273  Au
7.26306600  8.63333300  73.46877000  1  274  Au
5.55411000  8.63333300  75.88560000  1  275  Au
6.40858800  7.15333300  78.30243000  1  276  Au
7.26306600  11.59333300  66.21828000  1  277  Au
5.55411000  11.59333300  68.63511000  1  278  Au
6.40858800  10.11333300  71.05194000  1  279  Au
7.26306600  11.59333300  73.46877000  1  280  Au
5.55411000  11.59333300  75.88560000  1  281  Au
6.40858800  10.11333300  78.30243000  1  282  Au
%endblock AtomicCoordinatesAndAtomicSpecies
