AtomicCoordinatesFormat Ang
%block AtomicCoordinatesAndAtomicSpecies
2.13619600  2.71333300  -0.00000000  1  1  Au
0.42723900  2.71333300  2.41683000  1  2  Au
1.28171800  1.23333300  4.83366000  1  3  Au
2.13619600  2.71333300  7.25049000  1  4  Au
0.42723900  2.71333300  9.66732000  1  5  Au
1.28171800  1.23333300  12.08415000  1  6  Au
2.13619600  5.67333300  -0.00000000  1  7  Au
0.42723900  5.67333300  2.41683000  1  8  Au
1.28171800  4.19333300  4.83366000  1  9  Au
2.13619600  5.67333300  7.25049000  1  10  Au
0.42723900  5.67333300  9.66732000  1  11  Au
1.28171800  4.19333300  12.08415000  1  12  Au
2.13619600  8.63333300  -0.00000000  1  13  Au
0.42723900  8.63333300  2.41683000  1  14  Au
1.28171800  7.15333300  4.83366000  1  15  Au
2.13619600  8.63333300  7.25049000  1  16  Au
0.42723900  8.63333300  9.66732000  1  17  Au
1.28171800  7.15333300  12.08415000  1  18  Au
4.69963100  4.19333300  -0.00000000  1  19  Au
2.99067400  4.19333300  2.41683000  1  20  Au
3.84515300  2.71333300  4.83366000  1  21  Au
4.69963100  4.19333300  7.25049000  1  22  Au
2.99067400  4.19333300  9.66732000  1  23  Au
3.84515300  2.71333300  12.08415000  1  24  Au
4.69963100  7.15333300  -0.00000000  1  25  Au
2.99067400  7.15333300  2.41683000  1  26  Au
3.84515300  5.67333300  4.83366000  1  27  Au
4.69963100  7.15333300  7.25049000  1  28  Au
2.99067400  7.15333300  9.66732000  1  29  Au
3.84515300  5.67333300  12.08415000  1  30  Au
4.69963100  10.11333300  -0.00000000  1  31  Au
2.99067400  10.11333300  2.41683000  1  32  Au
3.84515300  8.63333300  4.83366000  1  33  Au
4.69963100  10.11333300  7.25049000  1  34  Au
2.99067400  10.11333300  9.66732000  1  35  Au
3.84515300  8.63333300  12.08415000  1  36  Au
7.26306600  5.67333300  -0.00000000  1  37  Au
5.55411000  5.67333300  2.41683000  1  38  Au
6.40858800  4.19333300  4.83366000  1  39  Au
7.26306600  5.67333300  7.25049000  1  40  Au
5.55411000  5.67333300  9.66732000  1  41  Au
6.40858800  4.19333300  12.08415000  1  42  Au
7.26306600  8.63333300  -0.00000000  1  43  Au
5.55411000  8.63333300  2.41683000  1  44  Au
6.40858800  7.15333300  4.83366000  1  45  Au
7.26306600  8.63333300  7.25049000  1  46  Au
5.55411000  8.63333300  9.66732000  1  47  Au
6.40858800  7.15333300  12.08415000  1  48  Au
7.26306600  11.59333300  -0.00000000  1  49  Au
5.55411000  11.59333300  2.41683000  1  50  Au
6.40858800  10.11333300  4.83366000  1  51  Au
7.26306600  11.59333300  7.25049000  1  52  Au
5.55411000  11.59333300  9.66732000  1  53  Au
6.40858800  10.11333300  12.08415000  1  54  Au
2.13619600  2.71333300  14.50098000  1  55  Au
0.42723900  2.71333300  16.91781000  1  56  Au
1.28171800  1.23333300  19.33464000  1  57  Au
2.13619600  5.67333300  14.50098000  1  58  Au
0.42723900  5.67333300  16.91781000  1  59  Au
1.28171800  4.19333300  19.33464000  1  60  Au
2.13619600  8.63333300  14.50098000  1  61  Au
0.42723900  8.63333300  16.91781000  1  62  Au
1.28171800  7.15333300  19.33464000  1  63  Au
4.69963100  4.19333300  14.50098000  1  64  Au
2.99067400  4.19333300  16.91781000  1  65  Au
3.84515300  2.71333300  19.33464000  1  66  Au
4.69963100  7.15333300  14.50098000  1  67  Au
2.99067400  7.15333300  16.91781000  1  68  Au
3.84515300  5.67333300  19.33464000  1  69  Au
4.69963100  10.11333300  14.50098000  1  70  Au
2.99067400  10.11333300  16.91781000  1  71  Au
3.84515300  8.63333300  19.33464000  1  72  Au
7.26306600  5.67333300  14.50098000  1  73  Au
5.55411000  5.67333300  16.91781000  1  74  Au
6.40858800  4.19333300  19.33464000  1  75  Au
7.26306600  8.63333300  14.50098000  1  76  Au
5.55411000  8.63333300  16.91781000  1  77  Au
6.40858800  7.15333300  19.33464000  1  78  Au
7.26306600  11.59333300  14.50098000  1  79  Au
5.55411000  11.59333300  16.91781000  1  80  Au
6.40858800  10.11333300  19.33464000  1  81  Au
3.79507500  2.17770200  23.57468900  2  82  O
4.22743700  3.02037900  23.25870000  3  83  H
2.83937400  2.18436900  23.20787700  3  84  H
5.13092700  4.43030200  27.15122100  2  85  O
4.68598500  3.59547000  26.81237200  3  86  H
6.07928600  4.41320700  26.81821200  3  87  H
5.04775600  4.46609200  22.73596300  2  88  O
4.58757700  5.32127100  23.04437500  3  89  H
5.01650900  4.48422400  21.75644300  3  90  H
3.84755600  2.20605200  26.28296200  2  91  O
3.82178100  2.18688200  25.27909400  3  92  H
4.33144500  1.37455600  26.57156500  3  93  H
3.83132200  6.65195200  23.56964000  2  94  O
4.30228800  7.48667600  23.28800000  3  95  H
3.81643000  6.65370300  24.57820600  3  96  H
5.14998200  8.86501900  27.13649200  2  97  O
4.68755100  8.03564300  26.81251900  3  98  H
6.08854300  8.84129400  26.77713500  3  99  H
5.10679000  8.92755100  22.73651800  2  100  O
4.59963800  9.76244900  23.02878200  3  101  H
5.08085100  8.93064400  21.75643000  3  102  H
3.84217900  6.64472100  26.25603200  2  103  O
4.30112500  5.81387200  26.58544700  3  104  H
2.90174600  6.62333800  26.61423500  3  105  H
0.00610300  -0.00633300  23.53392300  2  106  O
0.00872700  -0.01887600  24.53720500  3  107  H
-0.94889300  0.01684500  23.25609400  3  108  H
1.26789500  2.20785500  27.14240900  2  109  O
2.22794000  2.19749100  26.84945100  3  110  H
1.27318400  2.22129900  28.14716800  3  111  H
1.35939800  2.18349400  22.60260500  2  112  O
0.83674700  1.40368300  22.94450500  3  113  H
0.87044900  2.99982900  22.89843100  3  114  H
-0.00079100  -0.01572000  26.25151000  2  115  O
0.49040600  0.79095000  26.59525800  3  116  H
0.48510400  -0.82241500  26.59907000  3  117  H
0.07425900  4.47092500  23.51853800  2  118  O
0.51719100  5.29677800  23.13630700  3  119  H
-0.87279100  4.50143400  23.21661200  3  120  H
1.29680900  6.65333400  27.15757500  2  121  O
0.82268000  5.82782200  26.83641800  3  122  H
1.27494000  6.63794700  28.16222400  3  123  H
1.25990400  6.64735600  22.49916200  2  124  O
2.18682800  6.67875800  22.85845400  3  125  H
0.80639000  7.45857500  22.86316900  3  126  H
0.01483900  4.44584000  26.22533200  2  127  O
0.49281600  3.61940000  26.53478300  3  128  H
0.05672600  4.45229500  25.21939600  3  129  H
3.84226200  2.21540300  30.74773100  2  130  O
4.28909300  3.04759800  30.40484100  3  131  H
2.89353700  2.23766000  30.41963600  3  132  H
5.12673400  4.43710500  34.36910000  2  133  O
4.68347100  3.60597400  34.01912700  3  134  H
6.07401600  4.42300100  34.03551700  3  135  H
5.12797500  4.43050300  29.85896400  2  136  O
4.65852300  5.26514300  30.16052900  3  137  H
5.12571900  4.44124200  28.85379400  3  138  H
3.85337900  2.22034600  33.46240800  2  139  O
3.85381400  2.21000600  32.45783800  3  140  H
4.32808400  1.38719900  33.76098600  3  141  H
3.83929000  6.66125500  30.73389000  2  142  O
4.31500900  7.49060200  30.42786000  3  143  H
3.85410700  6.66812800  31.73894400  3  144  H
5.12310000  8.87661600  34.36617700  2  145  O
4.66869200  8.04672400  34.03054600  3  146  H
6.06783000  8.84946800  34.02399300  3  147  H
5.13761700  8.88460200  29.85015300  2  148  O
4.65029400  9.71283900  30.14229700  3  149  H
5.14080500  8.88633300  28.84572300  3  150  H
3.85368300  6.65404400  33.44395300  2  151  O
4.30810500  5.82486900  33.78192900  3  152  H
2.91145200  6.63085200  33.79289600  3  153  H
0.00720200  0.00893000  30.74807100  2  154  O
-0.01241000  0.00280100  31.75287700  3  155  H
-0.94753300  0.00749900  30.43630300  3  156  H
1.27870000  2.20977200  34.34594900  2  157  O
2.23516400  2.20663500  34.04081500  3  158  H
1.29132400  2.21784900  35.35088200  3  159  H
1.27573300  2.23014500  29.85207900  2  160  O
0.78535900  1.42496000  30.20035500  3  161  H
0.78577200  3.03846400  30.19097400  3  162  H
-0.00516500  -0.00421600  33.45621400  2  163  O
0.49208600  0.79894900  33.80011900  3  164  H
0.48073100  -0.81421600  33.79738600  3  165  H
-0.00521300  4.44237200  30.77092200  2  166  O
0.45832600  5.26986900  30.43963900  3  167  H
-0.94532100  4.47375400  30.41682000  3  168  H
1.29683800  6.66278300  34.34865000  2  169  O
0.81744000  5.83512200  34.04196200  3  170  H
1.28287500  6.65199700  35.35330100  3  171  H
1.27392500  6.65531600  29.86424900  2  172  O
2.22025200  6.68613100  30.20199400  3  173  H
0.81612900  7.48264600  30.20330700  3  174  H
-0.00828700  4.44352400  33.47520600  2  175  O
0.48019000  3.61974700  33.77626700  3  176  H
-0.00391200  4.43389400  32.46965900  3  177  H
3.84030100  2.21964900  37.97898600  2  178  O
4.28871000  3.04994100  37.63349500  3  179  H
2.89432700  2.23964300  37.64351100  3  180  H
5.12914800  4.43735200  41.59988700  2  181  O
4.68487600  3.60645900  41.25081100  3  182  H
6.07509400  4.42335200  41.26302300  3  183  H
5.12611900  4.43209500  37.07991400  2  184  O
4.65669700  5.26602800  37.38335300  3  185  H
5.12076900  4.44286100  36.07488900  3  186  H
3.85246200  2.22144300  40.69440900  2  187  O
3.85132100  2.21279100  39.68993100  3  188  H
4.32740800  1.38786100  40.99101300  3  189  H
3.83528600  6.66007800  37.96058500  2  190  O
4.31101900  7.49053900  37.65741100  3  191  H
3.84790900  6.66577300  38.96543700  3  192  H
5.12446100  8.87597800  41.59381700  2  193  O
4.66872400  8.04650100  41.25901500  3  194  H
6.06753100  8.84906100  41.24793600  3  195  H
5.13182500  8.88550600  37.07993900  2  196  O
4.64749000  9.71352500  37.37692200  3  197  H
5.12284400  8.88911300  36.07529600  3  198  H
3.85187600  6.65369900  40.67331600  2  199  O
4.30718200  5.82536200  41.01163500  3  200  H
2.91023000  6.63062600  41.02384900  3  201  H
0.00914800  0.01045800  37.96340500  2  202  O
-0.00822300  0.00333100  38.96799800  3  203  H
-0.94641700  0.00984700  37.65467400  3  204  H
1.27681000  2.21110300  41.57591100  2  205  O
2.23379300  2.20783500  41.27271800  3  206  H
1.28791900  2.21954300  42.58076300  3  207  H
1.28022100  2.22825000  37.05732600  2  208  O
0.78909600  1.42445400  37.40782400  3  209  H
0.79027200  3.03694200  37.39488300  3  210  H
-0.00373900  -0.00380700  40.67684000  2  211  O
0.49156100  0.79906700  41.02354500  3  212  H
0.48073600  -0.81315200  41.02090200  3  213  H
-0.00055600  4.44258000  37.98314300  2  214  O
0.46012000  5.26894900  37.64652900  3  215  H
-0.94257900  4.47356500  37.63477800  3  216  H
1.29522700  6.66264100  41.57890800  2  217  O
0.81709900  5.83543200  41.27001500  3  218  H
1.27984100  6.65095100  42.58358100  3  219  H
1.27731400  6.65881600  37.06122900  2  220  O
2.22017500  6.68629400  37.40829600  3  221  H
0.81840200  7.48289900  37.40523900  3  222  H
-0.00684000  4.44318000  40.69468600  2  223  O
0.48047000  3.61962200  40.99820900  3  224  H
0.00106200  4.43396900  39.68975900  3  225  H
3.83895600  2.21907600  45.20511700  2  226  O
4.28755800  3.05010700  44.86150700  3  227  H
2.89260200  2.23967500  44.87028800  3  228  H
5.12452900  4.43899600  48.80587100  2  229  O
4.68148300  3.60525300  48.46101100  3  230  H
6.07286000  4.42289700  48.47554300  3  231  H
5.12623600  4.43197900  44.31108500  2  232  O
4.65633600  5.26646300  44.61290000  3  233  H
5.12270500  4.44247400  43.30606500  3  234  H
3.85011900  2.21956100  47.91711200  2  235  O
3.84823700  2.21041500  46.91233000  3  236  H
4.32535000  1.38587700  48.21360300  3  237  H
3.83404800  6.66052100  45.18452000  2  238  O
4.31057500  7.49076600  44.88208700  3  239  H
3.84496200  6.66721200  46.18975100  3  240  H
5.12020600  8.87498900  48.81309700  2  241  O
4.66704400  8.04474500  48.47611700  3  242  H
6.06563200  8.84906800  48.47383200  3  243  H
5.13370000  8.88606500  44.30915100  2  244  O
4.64804100  9.71372900  44.60507000  3  245  H
5.12611700  8.88942900  43.30460800  3  246  H
3.84980600  6.65541400  47.89223600  2  247  O
4.30572200  5.82509200  48.22587100  3  248  H
2.90923100  6.63257200  48.24606100  3  249  H
0.00993100  0.01021000  45.19222000  2  250  O
-0.00654600  0.00237300  46.19696600  3  251  H
-0.94604300  0.00972800  44.88465700  3  252  H
1.27655200  2.20877400  48.79927800  2  253  O
2.23339200  2.20556300  48.49501700  3  254  H
1.28912100  2.21358000  49.80449500  3  255  H
1.27881100  2.22928900  44.28844200  2  256  O
0.78830100  1.42487700  44.63866600  3  257  H
0.78970800  3.03770600  44.62785400  3  258  H
-0.00251700  -0.00502500  47.90312300  2  259  O
0.49203600  0.79895800  48.24911700  3  260  H
0.48228100  -0.81359000  48.24827600  3  261  H
0.00026500  4.44395700  45.21718200  2  262  O
0.46104200  5.26989700  44.87910500  3  263  H
-0.94140000  4.47450200  44.86797500  3  264  H
1.29915900  6.66480900  48.80754800  2  265  O
0.82002600  5.83640900  48.50304500  3  266  H
1.28904600  6.65713500  49.81214600  3  267  H
1.27585000  6.65783500  44.29123400  2  268  O
2.21984900  6.68598700  44.63570200  3  269  H
0.81764000  7.48248500  44.63498200  3  270  H
-0.00498100  4.44537900  47.92826800  2  271  O
0.48151000  3.62041400  48.22968200  3  272  H
0.00280000  4.43739500  46.92319400  3  273  H
3.84229100  2.22383400  52.42474000  2  274  O
4.28726500  3.05405700  52.07489600  3  275  H
2.89595100  2.24063900  52.09248100  3  276  H
5.02723300  4.45745200  56.18962300  2  277  O
4.60523300  3.63073000  55.82322900  3  278  H
5.96613700  4.44305200  55.86046700  3  279  H
5.11578100  4.43524600  51.51310700  2  280  O
4.65020300  5.26803900  51.82642800  3  281  H
5.10855200  4.45043600  50.50829800  3  282  H
3.80905300  2.20498800  55.14848000  2  283  O
3.84228100  2.21648200  54.14604500  3  284  H
4.29836700  1.36672700  55.45338100  3  285  H
3.83927100  6.65512700  52.42956400  2  286  O
4.31288500  7.48611300  52.12805500  3  287  H
3.86788100  6.64587300  53.43615600  3  288  H
5.07392000  8.93930300  56.02692900  2  289  O
4.64455800  8.08919100  55.73151600  3  290  H
6.00920600  8.90335100  55.69328500  3  291  H
5.12509300  8.88834900  51.52724700  2  292  O
4.64324800  9.71738700  51.82722400  3  293  H
5.10968800  8.88983700  50.52299600  3  294  H
3.85987800  6.62306500  55.13244200  2  295  O
4.29458400  5.79871300  55.52614800  3  296  H
2.91512400  6.61260100  55.44489100  3  297  H
-0.01344100  0.01306400  52.40143000  2  298  O
-0.05759600  0.01075800  53.40499300  3  299  H
-0.96465900  0.01031100  52.07642200  3  300  H
1.31131900  2.22094200  55.91434200  2  301  O
2.29598900  2.19830000  55.62462600  3  302  H
1.32086400  2.24468800  56.89508200  3  303  H
1.27649400  2.22397300  51.50787200  2  304  O
0.77781600  1.42370300  51.85602400  3  305  H
0.78433500  3.03687000  51.83003200  3  306  H
-0.08435800  0.01265600  55.11183200  2  307  O
0.44986400  0.79714800  55.42367900  3  308  H
0.39773600  -0.80275200  55.42712000  3  309  H
-0.00844600  4.45283900  52.38833200  2  310  O
0.45582900  5.28179700  52.06104800  3  311  H
-0.95500500  4.48601400  52.04734400  3  312  H
1.21755400  6.63460900  55.93820700  2  313  O
0.75028100  5.78957900  55.60962600  3  314  H
1.17573500  6.60162500  56.91690000  3  315  H
1.28477700  6.67100000  51.51972200  2  316  O
2.22470200  6.69472500  51.87630400  3  317  H
0.81952500  7.49324800  51.85974100  3  318  H
-0.00055500  4.46970200  55.06654200  2  319  O
0.49120700  3.64977600  55.35610500  3  320  H
-0.01241000  4.45854900  54.05751500  3  321  H
2.13619600  2.71333300  59.33949000  1  322  Au
0.42723900  2.71333300  61.75632000  1  323  Au
1.28171800  1.23333300  64.17315000  1  324  Au
2.13619600  5.67333300  59.33949000  1  325  Au
0.42723900  5.67333300  61.75632000  1  326  Au
1.28171800  4.19333300  64.17315000  1  327  Au
2.13619600  8.63333300  59.33949000  1  328  Au
0.42723900  8.63333300  61.75632000  1  329  Au
1.28171800  7.15333300  64.17315000  1  330  Au
4.69963100  4.19333300  59.33949000  1  331  Au
2.99067400  4.19333300  61.75632000  1  332  Au
3.84515300  2.71333300  64.17315000  1  333  Au
4.69963100  7.15333300  59.33949000  1  334  Au
2.99067400  7.15333300  61.75632000  1  335  Au
3.84515300  5.67333300  64.17315000  1  336  Au
4.69963100  10.11333300  59.33949000  1  337  Au
2.99067400  10.11333300  61.75632000  1  338  Au
3.84515300  8.63333300  64.17315000  1  339  Au
7.26306600  5.67333300  59.33949000  1  340  Au
5.55411000  5.67333300  61.75632000  1  341  Au
6.40858800  4.19333300  64.17315000  1  342  Au
7.26306600  8.63333300  59.33949000  1  343  Au
5.55411000  8.63333300  61.75632000  1  344  Au
6.40858800  7.15333300  64.17315000  1  345  Au
7.26306600  11.59333300  59.33949000  1  346  Au
5.55411000  11.59333300  61.75632000  1  347  Au
6.40858800  10.11333300  64.17315000  1  348  Au
2.13619600  2.71333300  66.58998000  1  349  Au
0.42723900  2.71333300  69.00681000  1  350  Au
1.28171800  1.23333300  71.42364000  1  351  Au
2.13619600  2.71333300  73.84047000  1  352  Au
0.42723900  2.71333300  76.25730000  1  353  Au
1.28171800  1.23333300  78.67413000  1  354  Au
2.13619600  5.67333300  66.58998000  1  355  Au
0.42723900  5.67333300  69.00681000  1  356  Au
1.28171800  4.19333300  71.42364000  1  357  Au
2.13619600  5.67333300  73.84047000  1  358  Au
0.42723900  5.67333300  76.25730000  1  359  Au
1.28171800  4.19333300  78.67413000  1  360  Au
2.13619600  8.63333300  66.58998000  1  361  Au
0.42723900  8.63333300  69.00681000  1  362  Au
1.28171800  7.15333300  71.42364000  1  363  Au
2.13619600  8.63333300  73.84047000  1  364  Au
0.42723900  8.63333300  76.25730000  1  365  Au
1.28171800  7.15333300  78.67413000  1  366  Au
4.69963100  4.19333300  66.58998000  1  367  Au
2.99067400  4.19333300  69.00681000  1  368  Au
3.84515300  2.71333300  71.42364000  1  369  Au
4.69963100  4.19333300  73.84047000  1  370  Au
2.99067400  4.19333300  76.25730000  1  371  Au
3.84515300  2.71333300  78.67413000  1  372  Au
4.69963100  7.15333300  66.58998000  1  373  Au
2.99067400  7.15333300  69.00681000  1  374  Au
3.84515300  5.67333300  71.42364000  1  375  Au
4.69963100  7.15333300  73.84047000  1  376  Au
2.99067400  7.15333300  76.25730000  1  377  Au
3.84515300  5.67333300  78.67413000  1  378  Au
4.69963100  10.11333300  66.58998000  1  379  Au
2.99067400  10.11333300  69.00681000  1  380  Au
3.84515300  8.63333300  71.42364000  1  381  Au
4.69963100  10.11333300  73.84047000  1  382  Au
2.99067400  10.11333300  76.25730000  1  383  Au
3.84515300  8.63333300  78.67413000  1  384  Au
7.26306600  5.67333300  66.58998000  1  385  Au
5.55411000  5.67333300  69.00681000  1  386  Au
6.40858800  4.19333300  71.42364000  1  387  Au
7.26306600  5.67333300  73.84047000  1  388  Au
5.55411000  5.67333300  76.25730000  1  389  Au
6.40858800  4.19333300  78.67413000  1  390  Au
7.26306600  8.63333300  66.58998000  1  391  Au
5.55411000  8.63333300  69.00681000  1  392  Au
6.40858800  7.15333300  71.42364000  1  393  Au
7.26306600  8.63333300  73.84047000  1  394  Au
5.55411000  8.63333300  76.25730000  1  395  Au
6.40858800  7.15333300  78.67413000  1  396  Au
7.26306600  11.59333300  66.58998000  1  397  Au
5.55411000  11.59333300  69.00681000  1  398  Au
6.40858800  10.11333300  71.42364000  1  399  Au
7.26306600  11.59333300  73.84047000  1  400  Au
5.55411000  11.59333300  76.25730000  1  401  Au
6.40858800  10.11333300  78.67413000  1  402  Au
%endblock AtomicCoordinatesAndAtomicSpecies
