%block AtomicCoordinatesAndAtomicSpecies
    3.795075    2.177702    23.574689    1
    4.227437    3.020379    23.2587    2
    2.839374    2.184369    23.207877    2
    5.130927    4.430302    27.151221    1
    4.685985    3.59547    26.812372    2
    6.079286    4.413207    26.818212    2
    5.047756    4.466092    22.735963    1
    4.587577    5.321271    23.044375    2
    5.016509    4.484224    21.756443    2
    3.847556    2.206052    26.282962    1
    3.821781    2.186882    25.279094    2
    4.331445    1.374556    26.571565    2
    3.831322    6.651952    23.56964    1
    4.302288    7.486676    23.288    2
    3.81643    6.653703    24.578206    2
    5.149982    8.865019    27.136492    1
    4.687551    8.035643    26.812519    2
    6.088543    8.841294    26.777135    2
    5.10679    8.927551    22.736518    1
    4.599638    9.762449    23.028782    2
    5.080851    8.930644    21.75643    2
    3.842179    6.644721    26.256032    1
    4.301125    5.813872    26.585447    2
    2.901746    6.623338    26.614235    2
    0.006103    -0.006333    23.533923    1
    0.008727    -0.018876    24.537205    2
    -0.948893    0.016845    23.256094    2
    1.267895    2.207855    27.142409    1
    2.22794    2.197491    26.849451    2
    1.273184    2.221299    28.147168    2
    1.359398    2.183494    22.602605    1
    0.836747    1.403683    22.944505    2
    0.870449    2.999829    22.898431    2
    -0.000791    -0.01572    26.25151    1
    0.490406    0.79095    26.595258    2
    0.485104    -0.822415    26.59907    2
    0.074259    4.470925    23.518538    1
    0.517191    5.296778    23.136307    2
    -0.872791    4.501434    23.216612    2
    1.296809    6.653334    27.157575    1
    0.82268    5.827822    26.836418    2
    1.27494    6.637947    28.162224    2
    1.259904    6.647356    22.499162    1
    2.186828    6.678758    22.858454    2
    0.80639    7.458575    22.863169    2
    0.014839    4.44584    26.225332    1
    0.492816    3.6194    26.534783    2
    0.056726    4.452295    25.219396    2
    3.842262    2.215403    30.747731    1
    4.289093    3.047598    30.404841    2
    2.893537    2.23766    30.419636    2
    5.126734    4.437105    34.3691    1
    4.683471    3.605974    34.019127    2
    6.074016    4.423001    34.035517    2
    5.127975    4.430503    29.858964    1
    4.658523    5.265143    30.160529    2
    5.125719    4.441242    28.853794    2
    3.853379    2.220346    33.462408    1
    3.853814    2.210006    32.457838    2
    4.328084    1.387199    33.760986    2
    3.83929    6.661255    30.73389    1
    4.315009    7.490602    30.42786    2
    3.854107    6.668128    31.738944    2
    5.1231    8.876616    34.366177    1
    4.668692    8.046724    34.030546    2
    6.06783    8.849468    34.023993    2
    5.137617    8.884602    29.850153    1
    4.650294    9.712839    30.142297    2
    5.140805    8.886333    28.845723    2
    3.853683    6.654044    33.443953    1
    4.308105    5.824869    33.781929    2
    2.911452    6.630852    33.792896    2
    0.007202    0.00893    30.748071    1
    -0.01241    0.002801    31.752877    2
    -0.947533    0.007499    30.436303    2
    1.2787    2.209772    34.345949    1
    2.235164    2.206635    34.040815    2
    1.291324    2.217849    35.350882    2
    1.275733    2.230145    29.852079    1
    0.785359    1.42496    30.200355    2
    0.785772    3.038464    30.190974    2
    -0.005165    -0.004216    33.456214    1
    0.492086    0.798949    33.800119    2
    0.480731    -0.814216    33.797386    2
    -0.005213    4.442372    30.770922    1
    0.458326    5.269869    30.439639    2
    -0.945321    4.473754    30.41682    2
    1.296838    6.662783    34.34865    1
    0.81744    5.835122    34.041962    2
    1.282875    6.651997    35.353301    2
    1.273925    6.655316    29.864249    1
    2.220252    6.686131    30.201994    2
    0.816129    7.482646    30.203307    2
    -0.008287    4.443524    33.475206    1
    0.48019    3.619747    33.776267    2
    -0.003912    4.433894    32.469659    2
    3.840301    2.219649    37.978986    1
    4.28871    3.049941    37.633495    2
    2.894327    2.239643    37.643511    2
    5.129148    4.437352    41.599887    1
    4.684876    3.606459    41.250811    2
    6.075094    4.423352    41.263023    2
    5.126119    4.432095    37.079914    1
    4.656697    5.266028    37.383353    2
    5.120769    4.442861    36.074889    2
    3.852462    2.221443    40.694409    1
    3.851321    2.212791    39.689931    2
    4.327408    1.387861    40.991013    2
    3.835286    6.660078    37.960585    1
    4.311019    7.490539    37.657411    2
    3.847909    6.665773    38.965437    2
    5.124461    8.875978    41.593817    1
    4.668724    8.046501    41.259015    2
    6.067531    8.849061    41.247936    2
    5.131825    8.885506    37.079939    1
    4.64749    9.713525    37.376922    2
    5.122844    8.889113    36.075296    2
    3.851876    6.653699    40.673316    1
    4.307182    5.825362    41.011635    2
    2.91023    6.630626    41.023849    2
    0.009148    0.010458    37.963405    1
    -0.008223    0.003331    38.967998    2
    -0.946417    0.009847    37.654674    2
    1.27681    2.211103    41.575911    1
    2.233793    2.207835    41.272718    2
    1.287919    2.219543    42.580763    2
    1.280221    2.22825    37.057326    1
    0.789096    1.424454    37.407824    2
    0.790272    3.036942    37.394883    2
    -0.003739    -0.003807    40.67684    1
    0.491561    0.799067    41.023545    2
    0.480736    -0.813152    41.020902    2
    -0.000556    4.44258    37.983143    1
    0.46012    5.268949    37.646529    2
    -0.942579    4.473565    37.634778    2
    1.295227    6.662641    41.578908    1
    0.817099    5.835432    41.270015    2
    1.279841    6.650951    42.583581    2
    1.277314    6.658816    37.061229    1
    2.220175    6.686294    37.408296    2
    0.818402    7.482899    37.405239    2
    -0.00684    4.44318    40.694686    1
    0.48047    3.619622    40.998209    2
    0.001062    4.433969    39.689759    2
    3.838956    2.219076    45.205117    1
    4.287558    3.050107    44.861507    2
    2.892602    2.239675    44.870288    2
    5.124529    4.438996    48.805871    1
    4.681483    3.605253    48.461011    2
    6.07286    4.422897    48.475543    2
    5.126236    4.431979    44.311085    1
    4.656336    5.266463    44.6129    2
    5.122705    4.442474    43.306065    2
    3.850119    2.219561    47.917112    1
    3.848237    2.210415    46.91233    2
    4.32535    1.385877    48.213603    2
    3.834048    6.660521    45.18452    1
    4.310575    7.490766    44.882087    2
    3.844962    6.667212    46.189751    2
    5.120206    8.874989    48.813097    1
    4.667044    8.044745    48.476117    2
    6.065632    8.849068    48.473832    2
    5.1337    8.886065    44.309151    1
    4.648041    9.713729    44.60507    2
    5.126117    8.889429    43.304608    2
    3.849806    6.655414    47.892236    1
    4.305722    5.825092    48.225871    2
    2.909231    6.632572    48.246061    2
    0.009931    0.01021    45.19222    1
    -0.006546    0.002373    46.196966    2
    -0.946043    0.009728    44.884657    2
    1.276552    2.208774    48.799278    1
    2.233392    2.205563    48.495017    2
    1.289121    2.21358    49.804495    2
    1.278811    2.229289    44.288442    1
    0.788301    1.424877    44.638666    2
    0.789708    3.037706    44.627854    2
    -0.002517    -0.005025    47.903123    1
    0.492036    0.798958    48.249117    2
    0.482281    -0.81359    48.248276    2
    0.000265    4.443957    45.217182    1
    0.461042    5.269897    44.879105    2
    -0.9414    4.474502    44.867975    2
    1.299159    6.664809    48.807548    1
    0.820026    5.836409    48.503045    2
    1.289046    6.657135    49.812146    2
    1.27585    6.657835    44.291234    1
    2.219849    6.685987    44.635702    2
    0.81764    7.482485    44.634982    2
    -0.004981    4.445379    47.928268    1
    0.48151    3.620414    48.229682    2
    0.0028    4.437395    46.923194    2
    3.842291    2.223834    52.42474    1
    4.287265    3.054057    52.074896    2
    2.895951    2.240639    52.092481    2
    5.027233    4.457452    56.189623    1
    4.605233    3.63073    55.823229    2
    5.966137    4.443052    55.860467    2
    5.115781    4.435246    51.513107    1
    4.650203    5.268039    51.826428    2
    5.108552    4.450436    50.508298    2
    3.809053    2.204988    55.14848    1
    3.842281    2.216482    54.146045    2
    4.298367    1.366727    55.453381    2
    3.839271    6.655127    52.429564    1
    4.312885    7.486113    52.128055    2
    3.867881    6.645873    53.436156    2
    5.07392    8.939303    56.026929    1
    4.644558    8.089191    55.731516    2
    6.009206    8.903351    55.693285    2
    5.125093    8.888349    51.527247    1
    4.643248    9.717387    51.827224    2
    5.109688    8.889837    50.522996    2
    3.859878    6.623065    55.132442    1
    4.294584    5.798713    55.526148    2
    2.915124    6.612601    55.444891    2
    -0.013441    0.013064    52.40143    1
    -0.057596    0.010758    53.404993    2
    -0.964659    0.010311    52.076422    2
    1.311319    2.220942    55.914342    1
    2.295989    2.1983    55.624626    2
    1.320864    2.244688    56.895082    2
    1.276494    2.223973    51.507872    1
    0.777816    1.423703    51.856024    2
    0.784335    3.03687    51.830032    2
    -0.084358    0.012656    55.111832    1
    0.449864    0.797148    55.423679    2
    0.397736    -0.802752    55.42712    2
    -0.008446    4.452839    52.388332    1
    0.455829    5.281797    52.061048    2
    -0.955005    4.486014    52.047344    2
    1.217554    6.634609    55.938207    1
    0.750281    5.789579    55.609626    2
    1.175735    6.601625    56.9169    2
    1.284777    6.671    51.519722    1
    2.224702    6.694725    51.876304    2
    0.819525    7.493248    51.859741    2
    -0.000555    4.469702    55.066542    1
    0.491207    3.649776    55.356105    2
    -0.01241    4.458549    54.057515    2
%endblock AtomicCoordinatesAndAtomicSpecies
