AtomicCoordinatesFormat Ang
%block AtomicCoordinatesAndAtomicSpecies
2.13619600  2.71333300  -0.00000000  1  1  Au
0.42723900  2.71333300  2.41683000  1  2  Au
1.28171800  1.23333300  4.83366000  1  3  Au
2.13619600  2.71333300  7.25049000  1  4  Au
0.42723900  2.71333300  9.66732000  1  5  Au
1.28171800  1.23333300  12.08415000  1  6  Au
2.13619600  5.67333300  -0.00000000  1  7  Au
0.42723900  5.67333300  2.41683000  1  8  Au
1.28171800  4.19333300  4.83366000  1  9  Au
2.13619600  5.67333300  7.25049000  1  10  Au
0.42723900  5.67333300  9.66732000  1  11  Au
1.28171800  4.19333300  12.08415000  1  12  Au
2.13619600  8.63333300  -0.00000000  1  13  Au
0.42723900  8.63333300  2.41683000  1  14  Au
1.28171800  7.15333300  4.83366000  1  15  Au
2.13619600  8.63333300  7.25049000  1  16  Au
0.42723900  8.63333300  9.66732000  1  17  Au
1.28171800  7.15333300  12.08415000  1  18  Au
4.69963100  4.19333300  -0.00000000  1  19  Au
2.99067400  4.19333300  2.41683000  1  20  Au
3.84515300  2.71333300  4.83366000  1  21  Au
4.69963100  4.19333300  7.25049000  1  22  Au
2.99067400  4.19333300  9.66732000  1  23  Au
3.84515300  2.71333300  12.08415000  1  24  Au
4.69963100  7.15333300  -0.00000000  1  25  Au
2.99067400  7.15333300  2.41683000  1  26  Au
3.84515300  5.67333300  4.83366000  1  27  Au
4.69963100  7.15333300  7.25049000  1  28  Au
2.99067400  7.15333300  9.66732000  1  29  Au
3.84515300  5.67333300  12.08415000  1  30  Au
4.69963100  10.11333300  -0.00000000  1  31  Au
2.99067400  10.11333300  2.41683000  1  32  Au
3.84515300  8.63333300  4.83366000  1  33  Au
4.69963100  10.11333300  7.25049000  1  34  Au
2.99067400  10.11333300  9.66732000  1  35  Au
3.84515300  8.63333300  12.08415000  1  36  Au
7.26306600  5.67333300  -0.00000000  1  37  Au
5.55411000  5.67333300  2.41683000  1  38  Au
6.40858800  4.19333300  4.83366000  1  39  Au
7.26306600  5.67333300  7.25049000  1  40  Au
5.55411000  5.67333300  9.66732000  1  41  Au
6.40858800  4.19333300  12.08415000  1  42  Au
7.26306600  8.63333300  -0.00000000  1  43  Au
5.55411000  8.63333300  2.41683000  1  44  Au
6.40858800  7.15333300  4.83366000  1  45  Au
7.26306600  8.63333300  7.25049000  1  46  Au
5.55411000  8.63333300  9.66732000  1  47  Au
6.40858800  7.15333300  12.08415000  1  48  Au
7.26306600  11.59333300  -0.00000000  1  49  Au
5.55411000  11.59333300  2.41683000  1  50  Au
6.40858800  10.11333300  4.83366000  1  51  Au
7.26306600  11.59333300  7.25049000  1  52  Au
5.55411000  11.59333300  9.66732000  1  53  Au
6.40858800  10.11333300  12.08415000  1  54  Au
2.13619600  2.71333300  14.50098000  1  55  Au
0.42723900  2.71333300  16.91781000  1  56  Au
1.28171800  1.23333300  19.33464000  1  57  Au
2.13619600  5.67333300  14.50098000  1  58  Au
0.42723900  5.67333300  16.91781000  1  59  Au
1.28171800  4.19333300  19.33464000  1  60  Au
2.13619600  8.63333300  14.50098000  1  61  Au
0.42723900  8.63333300  16.91781000  1  62  Au
1.28171800  7.15333300  19.33464000  1  63  Au
4.69963100  4.19333300  14.50098000  1  64  Au
2.99067400  4.19333300  16.91781000  1  65  Au
3.84515300  2.71333300  19.33464000  1  66  Au
4.69963100  7.15333300  14.50098000  1  67  Au
2.99067400  7.15333300  16.91781000  1  68  Au
3.84515300  5.67333300  19.33464000  1  69  Au
4.69963100  10.11333300  14.50098000  1  70  Au
2.99067400  10.11333300  16.91781000  1  71  Au
3.84515300  8.63333300  19.33464000  1  72  Au
7.26306600  5.67333300  14.50098000  1  73  Au
5.55411000  5.67333300  16.91781000  1  74  Au
6.40858800  4.19333300  19.33464000  1  75  Au
7.26306600  8.63333300  14.50098000  1  76  Au
5.55411000  8.63333300  16.91781000  1  77  Au
6.40858800  7.15333300  19.33464000  1  78  Au
7.26306600  11.59333300  14.50098000  1  79  Au
5.55411000  11.59333300  16.91781000  1  80  Au
6.40858800  10.11333300  19.33464000  1  81  Au
3.80182900  2.30250200  22.01174100  2  82  O
4.30923700  3.07549200  22.41598500  3  83  H
4.30279100  1.47401200  22.27208200  3  84  H
5.09027500  4.40335300  23.07152100  2  85  O
6.06227000  4.41235300  22.78952900  3  86  H
5.07431800  4.40484500  24.07438700  3  87  H
5.04688000  4.43048500  25.78281400  2  88  O
4.54675500  3.62553900  26.11541000  3  89  H
4.54803800  5.24176100  26.10137800  3  90  H
3.76518300  2.20047500  26.63117700  2  91  O
3.75977900  2.18881100  27.63217300  3  92  H
2.80424800  2.20901500  26.33515900  3  93  H
3.77464400  2.21022400  29.36789300  2  94  O
4.27199500  3.01798000  29.69490600  3  95  H
4.27269800  1.40831400  29.70953700  3  96  H
5.06425900  4.44089200  30.24531000  2  97  O
6.02568100  4.44084200  29.94977300  3  98  H
5.07073200  4.44188100  31.24609900  3  99  H
5.04967100  4.44065200  32.98370300  2  100  O
4.55144500  3.63589700  33.31709500  3  101  H
4.55124600  5.24506800  33.31769800  3  102  H
3.75677800  2.21963800  33.87271700  2  103  O
3.74862900  2.21999300  34.87386700  3  104  H
2.79617000  2.22017700  33.57348900  3  105  H
3.77356100  2.22024500  36.60540600  2  106  O
4.27292400  3.02539800  36.93678900  3  107  H
4.27296500  1.41517900  36.93695700  3  108  H
5.06652800  4.44033000  37.48751600  2  109  O
6.02770000  4.44027500  37.18948800  3  110  H
5.07403200  4.44033300  38.48859400  3  111  H
5.04944300  4.44026200  40.22008900  2  112  O
4.55007700  3.63514800  40.55154900  3  113  H
4.55005000  5.24534200  40.55158900  3  114  H
3.75635600  2.22023100  41.10254500  2  115  O
3.74879900  2.22015800  42.10368800  3  116  H
2.79522500  2.22027400  40.80443500  3  117  H
3.77328800  2.22017100  43.83439400  2  118  O
4.27247200  3.02532400  44.16603700  3  119  H
4.27252200  1.41523800  44.16641500  3  120  H
5.06603400  4.44027700  44.71767700  2  121  O
6.02698100  4.44026300  44.41930000  3  122  H
5.07368400  4.44027400  45.71893300  3  123  H
5.04846100  4.44023500  47.44817200  2  124  O
4.54933800  3.63495800  47.77981400  3  125  H
4.54936200  5.24549900  47.77986000  3  126  H
3.75595900  2.22068800  48.33048600  2  127  O
3.74756600  2.22159900  49.33157400  3  128  H
2.79486200  2.22057200  48.03218300  3  129  H
3.76824500  2.22199000  51.06220700  2  130  O
4.26753300  3.02648000  51.39509500  3  131  H
4.26735500  1.41632800  51.39283000  3  132  H
5.06090200  4.44085200  51.94761800  2  133  O
6.02199700  4.44077500  51.64941700  3  134  H
5.06722400  4.44153500  52.94842800  3  135  H
5.04353300  4.44380500  54.68232300  2  136  O
4.54769700  3.64397100  55.02674900  3  137  H
4.54671700  5.24420500  55.02402200  3  138  H
3.72839600  2.22737300  55.56535400  2  139  O
3.71939000  2.23080900  56.55180800  3  140  H
2.75917400  2.22409600  55.27844200  3  141  H
3.78930700  6.54297200  22.10071800  2  142  O
4.29869100  7.37041900  22.33471400  3  143  H
4.30407400  5.76950500  22.48677000  3  144  H
5.08653900  8.88438500  22.84412900  2  145  O
6.06104000  8.88036800  22.58945000  3  146  H
5.06245500  8.89105600  23.84306600  3  147  H
5.04760600  8.88422000  25.62545500  2  148  O
4.56204700  8.08201900  25.97927100  3  149  H
4.56091000  9.68114700  25.98936900  3  150  H
3.77139400  6.67487800  26.61436000  2  151  O
3.76910500  6.68754500  27.61507500  3  152  H
2.80795500  6.66753800  26.32569500  3  153  H
3.77629600  6.66912900  29.35502200  2  154  O
4.27261200  7.47062300  29.69949000  3  155  H
4.27208200  5.86211600  29.68567800  3  156  H
5.06816500  8.87874800  30.26216100  2  157  O
6.02640600  8.87905400  29.95553400  3  158  H
5.08008000  8.87794100  31.26352300  3  159  H
5.05095100  8.87973700  32.99115600  2  160  O
4.55110400  8.07480600  33.32262200  3  161  H
4.55126300  9.68501000  33.32194700  3  162  H
3.75642300  6.66076100  33.87288200  2  163  O
3.74782600  6.66038400  34.87403000  3  164  H
2.79607000  6.66033100  33.57274200  3  165  H
3.77348000  6.66024800  36.60530300  2  166  O
4.27287200  7.46536100  36.93678900  3  167  H
4.27295000  5.85513300  36.93667600  3  168  H
5.06646100  8.88023400  37.48758600  2  169  O
6.02763800  8.88024700  37.18965800  3  170  H
5.07396400  8.88025300  38.48867000  3  171  H
5.04943800  8.88026400  40.22007700  2  172  O
4.55006800  8.07515000  40.55154800  3  173  H
4.55004200  9.68535400  40.55157300  3  174  H
3.75634900  6.66024900  41.10255600  2  175  O
3.74878100  6.66029000  42.10369600  3  176  H
2.79522500  6.66027900  40.80443500  3  177  H
3.77326200  6.66031700  43.83444200  2  178  O
4.27246000  7.46528500  44.16642700  3  179  H
4.27251900  5.85519900  44.16608400  3  180  H
5.06619600  8.88027900  44.71868000  2  181  O
6.02706100  8.88025700  44.42002200  3  182  H
5.07412600  8.88033200  45.71986500  3  183  H
5.04898900  8.88034400  47.44999700  2  184  O
4.54962700  8.07503400  47.78106400  3  185  H
4.54959700  9.68557400  47.78119900  3  186  H
3.75618100  6.65993200  48.33051600  2  187  O
3.74807800  6.65942600  49.33162100  3  188  H
2.79499100  6.66003300  48.03246800  3  189  H
3.76883600  6.65964000  51.06220200  2  190  O
4.26732500  7.46537900  51.39335300  3  191  H
4.26814200  5.85518300  51.39520000  3  192  H
5.05792900  8.88135000  51.94322100  2  193  O
6.02004300  8.88071600  51.64843000  3  194  H
5.06068400  8.88262700  52.94409100  3  195  H
5.03469700  8.88319100  54.67609100  2  196  O
4.54061000  8.08280600  55.02142100  3  197  H
4.54403400  9.68379700  55.02522000  3  198  H
3.72257600  6.66103000  55.55658000  2  199  O
3.71406100  6.66180900  56.54353700  3  200  H
2.75299100  6.66121400  55.26993800  3  201  H
-0.00512900  4.43720900  22.09006300  2  202  O
0.48037200  5.23877100  22.44866700  3  203  H
0.47429100  3.63060500  22.44277300  3  204  H
1.26378600  6.64749700  23.02250500  2  205  O
2.22465500  6.62052500  22.72404900  3  206  H
1.26282900  6.65340100  24.02402900  3  207  H
1.21120700  6.66096400  25.75020500  2  208  O
0.70541000  5.85606900  26.07090800  3  209  H
0.71206700  7.46634900  26.08116300  3  210  H
-0.10605200  4.43601300  26.59338900  2  211  O
-0.13204500  4.43447200  27.59333200  3  212  H
-1.05744500  4.43882000  26.26740800  3  213  H
-0.08276600  4.43844300  29.33940400  2  214  O
0.41741600  5.24224500  29.67136900  3  215  H
0.41726900  3.63585500  29.67491100  3  216  H
1.22036100  6.65395100  30.24217100  2  217  O
2.18091100  6.65805600  29.94334000  3  218  H
1.22841600  6.65207800  31.24290900  3  219  H
1.20513300  6.65856300  32.98144200  2  220  O
0.70692700  5.85460900  33.31716600  3  221  H
0.70702100  7.46364200  33.31424900  3  222  H
-0.08714100  4.44056800  33.87482900  2  223  O
-0.09458800  4.44073400  34.87605600  3  224  H
-1.04821400  4.44032800  33.57703900  3  225  H
-0.07142000  4.44030100  36.60619900  2  226  O
0.42798300  5.24547500  36.93758200  3  227  H
0.42802400  3.63511100  36.93749900  3  228  H
1.22145100  6.66018500  37.48769100  2  229  O
2.18258700  6.66020700  37.18959700  3  230  H
1.22901800  6.66023700  38.48877500  3  231  H
1.20430800  6.66026100  40.22008000  2  232  O
0.70492300  5.85515400  40.55151600  3  233  H
0.70490000  7.46535700  40.55151700  3  234  H
-0.08881100  4.44024300  41.10249900  2  235  O
-0.09631300  4.44022700  42.10362500  3  236  H
-1.04993500  4.44027800  40.80440600  3  237  H
-0.07174100  4.44023800  43.83442700  2  238  O
0.42737200  5.24526300  44.16641800  3  239  H
0.42742600  3.63521400  44.16638200  3  240  H
1.22101400  6.66019000  44.71887700  2  241  O
2.18187500  6.66022000  44.42020800  3  242  H
1.22893900  6.65989400  45.72006000  3  243  H
1.20392300  6.65986000  47.45042400  2  244  O
0.70447700  5.85484400  47.78204400  3  245  H
0.70433200  7.46535900  47.78078200  3  246  H
-0.08966100  4.43993900  48.33193200  2  247  O
-0.09888600  4.43938400  49.33303100  3  248  H
-1.05057500  4.44011200  48.03298700  3  249  H
-0.07859200  4.43935900  51.06401100  2  250  O
0.42171200  5.24488200  51.39301700  3  251  H
0.42155500  3.63452400  51.39475900  3  252  H
1.21439500  6.66151500  51.93819200  2  253  O
2.17641800  6.66086000  51.64299200  3  254  H
1.21835800  6.66400300  52.93908400  3  255  H
1.19254800  6.66298300  54.67037600  2  256  O
0.69832100  5.86001100  55.01088000  3  257  H
0.69928700  7.46119100  55.02172200  3  258  H
-0.11407800  4.44147800  55.54063900  2  259  O
-0.11997200  4.43986100  56.53072400  3  260  H
-1.08518300  4.44129100  55.26066200  3  261  H
-0.09750800  -0.01958500  22.19962300  2  262  O
0.42283600  0.78616100  22.48317800  3  263  H
0.43134800  -0.81842200  22.49190400  3  264  H
1.26559900  2.21429100  23.00043600  2  265  O
2.21707700  2.23584600  22.68480200  3  266  H
1.27801400  2.21362900  24.00210200  3  267  H
1.21552700  2.21696400  25.73047900  2  268  O
0.71510200  1.41345600  26.06445700  3  269  H
0.70980100  3.02150900  26.05209500  3  270  H
-0.07889100  0.00349000  26.63654200  2  271  O
-0.08098900  0.00512400  27.63799900  3  272  H
-1.04230500  -0.00053900  26.34791100  3  273  H
-0.06739700  0.00183600  29.36846300  2  274  O
0.43014300  0.80687200  29.70288700  3  275  H
0.43062600  -0.80421900  29.69935600  3  276  H
1.21834300  2.22657000  30.24893200  2  277  O
2.17968600  2.22209500  29.95257600  3  278  H
1.22466300  2.22846300  31.24993000  3  279  H
1.20406600  2.22194000  32.98485000  2  280  O
0.70596200  1.41656300  33.31719400  3  281  H
0.70582700  3.02614600  33.32017600  3  282  H
-0.08750600  -0.00010500  33.87153000  2  283  O
-0.09546300  -0.00029700  34.87260400  3  284  H
-1.04818100  0.00017000  33.57274900  3  285  H
-0.07160500  0.00019900  36.60532500  2  286  O
0.42768100  0.80531700  36.93687100  3  287  H
0.42775800  -0.80482300  36.93699600  3  288  H
1.22143100  2.22037900  37.48768000  2  289  O
2.18258200  2.22031500  37.18961800  3  290  H
1.22898400  2.22035000  38.48876800  3  291  H
1.20430500  2.22026500  40.22010100  2  292  O
0.70492500  1.41514000  40.55150100  3  293  H
0.70489400  3.02534200  40.55156500  3  294  H
-0.08879000  0.00023700  41.10245400  2  295  O
-0.09624600  0.00021800  42.10358200  3  296  H
-1.04993900  0.00027500  40.80439300  3  297  H
-0.07159500  0.00024500  43.83436700  2  298  O
0.42741300  0.80530200  44.16640600  3  299  H
0.42746200  -0.80474400  44.16648300  3  300  H
1.22098400  2.22035900  44.71868400  2  301  O
2.18184800  2.22029400  44.42003800  3  302  H
1.22891100  2.22065600  45.71989100  3  303  H
1.20395900  2.22060300  47.44988200  2  304  O
0.70436600  1.41507900  47.78026000  3  305  H
0.70442600  3.02558800  47.78154800  3  306  H
-0.08985400  0.00046400  48.32852900  2  307  O
-0.09932500  0.00089200  49.32969300  3  308  H
-1.05071200  0.00041000  48.02945800  3  309  H
-0.07878500  0.00093900  51.05955800  2  310  O
0.42169300  0.80558900  51.39050200  3  311  H
0.42161300  -0.80445600  51.38895000  3  312  H
1.21530000  2.21869800  51.94234900  2  313  O
2.17693800  2.21977800  51.64582300  3  314  H
1.22056400  2.21597200  52.94315000  3  315  H
1.19661700  2.21709300  54.67605800  2  316  O
0.70345300  1.41849000  55.02604300  3  317  H
0.70046500  3.01966100  55.01424500  3  318  H
-0.11448100  -0.00209500  55.57091800  2  319  O
-0.12014400  -0.00194700  56.55759600  3  320  H
-1.08464400  0.00089000  55.28704400  3  321  H
2.13619600  2.71333300  58.96779000  1  322  Au
0.42723900  2.71333300  61.38462000  1  323  Au
1.28171800  1.23333300  63.80145000  1  324  Au
2.13619600  5.67333300  58.96779000  1  325  Au
0.42723900  5.67333300  61.38462000  1  326  Au
1.28171800  4.19333300  63.80145000  1  327  Au
2.13619600  8.63333300  58.96779000  1  328  Au
0.42723900  8.63333300  61.38462000  1  329  Au
1.28171800  7.15333300  63.80145000  1  330  Au
4.69963100  4.19333300  58.96779000  1  331  Au
2.99067400  4.19333300  61.38462000  1  332  Au
3.84515300  2.71333300  63.80145000  1  333  Au
4.69963100  7.15333300  58.96779000  1  334  Au
2.99067400  7.15333300  61.38462000  1  335  Au
3.84515300  5.67333300  63.80145000  1  336  Au
4.69963100  10.11333300  58.96779000  1  337  Au
2.99067400  10.11333300  61.38462000  1  338  Au
3.84515300  8.63333300  63.80145000  1  339  Au
7.26306600  5.67333300  58.96779000  1  340  Au
5.55411000  5.67333300  61.38462000  1  341  Au
6.40858800  4.19333300  63.80145000  1  342  Au
7.26306600  8.63333300  58.96779000  1  343  Au
5.55411000  8.63333300  61.38462000  1  344  Au
6.40858800  7.15333300  63.80145000  1  345  Au
7.26306600  11.59333300  58.96779000  1  346  Au
5.55411000  11.59333300  61.38462000  1  347  Au
6.40858800  10.11333300  63.80145000  1  348  Au
2.13619600  2.71333300  66.21828000  1  349  Au
0.42723900  2.71333300  68.63511000  1  350  Au
1.28171800  1.23333300  71.05194000  1  351  Au
2.13619600  2.71333300  73.46877000  1  352  Au
0.42723900  2.71333300  75.88560000  1  353  Au
1.28171800  1.23333300  78.30243000  1  354  Au
2.13619600  5.67333300  66.21828000  1  355  Au
0.42723900  5.67333300  68.63511000  1  356  Au
1.28171800  4.19333300  71.05194000  1  357  Au
2.13619600  5.67333300  73.46877000  1  358  Au
0.42723900  5.67333300  75.88560000  1  359  Au
1.28171800  4.19333300  78.30243000  1  360  Au
2.13619600  8.63333300  66.21828000  1  361  Au
0.42723900  8.63333300  68.63511000  1  362  Au
1.28171800  7.15333300  71.05194000  1  363  Au
2.13619600  8.63333300  73.46877000  1  364  Au
0.42723900  8.63333300  75.88560000  1  365  Au
1.28171800  7.15333300  78.30243000  1  366  Au
4.69963100  4.19333300  66.21828000  1  367  Au
2.99067400  4.19333300  68.63511000  1  368  Au
3.84515300  2.71333300  71.05194000  1  369  Au
4.69963100  4.19333300  73.46877000  1  370  Au
2.99067400  4.19333300  75.88560000  1  371  Au
3.84515300  2.71333300  78.30243000  1  372  Au
4.69963100  7.15333300  66.21828000  1  373  Au
2.99067400  7.15333300  68.63511000  1  374  Au
3.84515300  5.67333300  71.05194000  1  375  Au
4.69963100  7.15333300  73.46877000  1  376  Au
2.99067400  7.15333300  75.88560000  1  377  Au
3.84515300  5.67333300  78.30243000  1  378  Au
4.69963100  10.11333300  66.21828000  1  379  Au
2.99067400  10.11333300  68.63511000  1  380  Au
3.84515300  8.63333300  71.05194000  1  381  Au
4.69963100  10.11333300  73.46877000  1  382  Au
2.99067400  10.11333300  75.88560000  1  383  Au
3.84515300  8.63333300  78.30243000  1  384  Au
7.26306600  5.67333300  66.21828000  1  385  Au
5.55411000  5.67333300  68.63511000  1  386  Au
6.40858800  4.19333300  71.05194000  1  387  Au
7.26306600  5.67333300  73.46877000  1  388  Au
5.55411000  5.67333300  75.88560000  1  389  Au
6.40858800  4.19333300  78.30243000  1  390  Au
7.26306600  8.63333300  66.21828000  1  391  Au
5.55411000  8.63333300  68.63511000  1  392  Au
6.40858800  7.15333300  71.05194000  1  393  Au
7.26306600  8.63333300  73.46877000  1  394  Au
5.55411000  8.63333300  75.88560000  1  395  Au
6.40858800  7.15333300  78.30243000  1  396  Au
7.26306600  11.59333300  66.21828000  1  397  Au
5.55411000  11.59333300  68.63511000  1  398  Au
6.40858800  10.11333300  71.05194000  1  399  Au
7.26306600  11.59333300  73.46877000  1  400  Au
5.55411000  11.59333300  75.88560000  1  401  Au
6.40858800  10.11333300  78.30243000  1  402  Au
%endblock AtomicCoordinatesAndAtomicSpecies
