%block AtomicCoordinatesAndAtomicSpecies
    3.801829    2.302502    22.011741    1
    4.309237    3.075492    22.415985    2
    4.302791    1.474012    22.272082    2
    5.090275    4.403353    23.071521    1
    6.06227    4.412353    22.789529    2
    5.074318    4.404845    24.074387    2
    5.04688    4.430485    25.782814    1
    4.546755    3.625539    26.11541    2
    4.548038    5.241761    26.101378    2
    3.765183    2.200475    26.631177    1
    3.759779    2.188811    27.632173    2
    2.804248    2.209015    26.335159    2
    3.774644    2.210224    29.367893    1
    4.271995    3.01798    29.694906    2
    4.272698    1.408314    29.709537    2
    5.064259    4.440892    30.24531    1
    6.025681    4.440842    29.949773    2
    5.070732    4.441881    31.246099    2
    5.049671    4.440652    32.983703    1
    4.551445    3.635897    33.317095    2
    4.551246    5.245068    33.317698    2
    3.756778    2.219638    33.872717    1
    3.748629    2.219993    34.873867    2
    2.79617    2.220177    33.573489    2
    3.773561    2.220245    36.605406    1
    4.272924    3.025398    36.936789    2
    4.272965    1.415179    36.936957    2
    5.066528    4.44033    37.487516    1
    6.0277    4.440275    37.189488    2
    5.074032    4.440333    38.488594    2
    5.049443    4.440262    40.220089    1
    4.550077    3.635148    40.551549    2
    4.55005    5.245342    40.551589    2
    3.756356    2.220231    41.102545    1
    3.748799    2.220158    42.103688    2
    2.795225    2.220274    40.804435    2
    3.773288    2.220171    43.834394    1
    4.272472    3.025324    44.166037    2
    4.272522    1.415238    44.166415    2
    5.066034    4.440277    44.717677    1
    6.026981    4.440263    44.4193    2
    5.073684    4.440274    45.718933    2
    5.048461    4.440235    47.448172    1
    4.549338    3.634958    47.779814    2
    4.549362    5.245499    47.77986    2
    3.755959    2.220688    48.330486    1
    3.747566    2.221599    49.331574    2
    2.794862    2.220572    48.032183    2
    3.768245    2.22199    51.062207    1
    4.267533    3.02648    51.395095    2
    4.267355    1.416328    51.39283    2
    5.060902    4.440852    51.947618    1
    6.021997    4.440775    51.649417    2
    5.067224    4.441535    52.948428    2
    5.043533    4.443805    54.682323    1
    4.547697    3.643971    55.026749    2
    4.546717    5.244205    55.024022    2
    3.728396    2.227373    55.565354    1
    3.71939    2.230809    56.551808    2
    2.759174    2.224096    55.278442    2
    3.789307    6.542972    22.100718    1
    4.298691    7.370419    22.334714    2
    4.304074    5.769505    22.48677    2
    5.086539    8.884385    22.844129    1
    6.06104    8.880368    22.58945    2
    5.062455    8.891056    23.843066    2
    5.047606    8.88422    25.625455    1
    4.562047    8.082019    25.979271    2
    4.56091    9.681147    25.989369    2
    3.771394    6.674878    26.61436    1
    3.769105    6.687545    27.615075    2
    2.807955    6.667538    26.325695    2
    3.776296    6.669129    29.355022    1
    4.272612    7.470623    29.69949    2
    4.272082    5.862116    29.685678    2
    5.068165    8.878748    30.262161    1
    6.026406    8.879054    29.955534    2
    5.08008    8.877941    31.263523    2
    5.050951    8.879737    32.991156    1
    4.551104    8.074806    33.322622    2
    4.551263    9.68501    33.321947    2
    3.756423    6.660761    33.872882    1
    3.747826    6.660384    34.87403    2
    2.79607    6.660331    33.572742    2
    3.77348    6.660248    36.605303    1
    4.272872    7.465361    36.936789    2
    4.27295    5.855133    36.936676    2
    5.066461    8.880234    37.487586    1
    6.027638    8.880247    37.189658    2
    5.073964    8.880253    38.48867    2
    5.049438    8.880264    40.220077    1
    4.550068    8.07515    40.551548    2
    4.550042    9.685354    40.551573    2
    3.756349    6.660249    41.102556    1
    3.748781    6.66029    42.103696    2
    2.795225    6.660279    40.804435    2
    3.773262    6.660317    43.834442    1
    4.27246    7.465285    44.166427    2
    4.272519    5.855199    44.166084    2
    5.066196    8.880279    44.71868    1
    6.027061    8.880257    44.420022    2
    5.074126    8.880332    45.719865    2
    5.048989    8.880344    47.449997    1
    4.549627    8.075034    47.781064    2
    4.549597    9.685574    47.781199    2
    3.756181    6.659932    48.330516    1
    3.748078    6.659426    49.331621    2
    2.794991    6.660033    48.032468    2
    3.768836    6.65964    51.062202    1
    4.267325    7.465379    51.393353    2
    4.268142    5.855183    51.3952    2
    5.057929    8.88135    51.943221    1
    6.020043    8.880716    51.64843    2
    5.060684    8.882627    52.944091    2
    5.034697    8.883191    54.676091    1
    4.54061    8.082806    55.021421    2
    4.544034    9.683797    55.02522    2
    3.722576    6.66103    55.55658    1
    3.714061    6.661809    56.543537    2
    2.752991    6.661214    55.269938    2
    -0.005129    4.437209    22.090063    1
    0.480372    5.238771    22.448667    2
    0.474291    3.630605    22.442773    2
    1.263786    6.647497    23.022505    1
    2.224655    6.620525    22.724049    2
    1.262829    6.653401    24.024029    2
    1.211207    6.660964    25.750205    1
    0.70541    5.856069    26.070908    2
    0.712067    7.466349    26.081163    2
    -0.106052    4.436013    26.593389    1
    -0.132045    4.434472    27.593332    2
    -1.057445    4.43882    26.267408    2
    -0.082766    4.438443    29.339404    1
    0.417416    5.242245    29.671369    2
    0.417269    3.635855    29.674911    2
    1.220361    6.653951    30.242171    1
    2.180911    6.658056    29.94334    2
    1.228416    6.652078    31.242909    2
    1.205133    6.658563    32.981442    1
    0.706927    5.854609    33.317166    2
    0.707021    7.463642    33.314249    2
    -0.087141    4.440568    33.874829    1
    -0.094588    4.440734    34.876056    2
    -1.048214    4.440328    33.577039    2
    -0.07142    4.440301    36.606199    1
    0.427983    5.245475    36.937582    2
    0.428024    3.635111    36.937499    2
    1.221451    6.660185    37.487691    1
    2.182587    6.660207    37.189597    2
    1.229018    6.660237    38.488775    2
    1.204308    6.660261    40.22008    1
    0.704923    5.855154    40.551516    2
    0.7049    7.465357    40.551517    2
    -0.088811    4.440243    41.102499    1
    -0.096313    4.440227    42.103625    2
    -1.049935    4.440278    40.804406    2
    -0.071741    4.440238    43.834427    1
    0.427372    5.245263    44.166418    2
    0.427426    3.635214    44.166382    2
    1.221014    6.66019    44.718877    1
    2.181875    6.66022    44.420208    2
    1.228939    6.659894    45.72006    2
    1.203923    6.65986    47.450424    1
    0.704477    5.854844    47.782044    2
    0.704332    7.465359    47.780782    2
    -0.089661    4.439939    48.331932    1
    -0.098886    4.439384    49.333031    2
    -1.050575    4.440112    48.032987    2
    -0.078592    4.439359    51.064011    1
    0.421712    5.244882    51.393017    2
    0.421555    3.634524    51.394759    2
    1.214395    6.661515    51.938192    1
    2.176418    6.66086    51.642992    2
    1.218358    6.664003    52.939084    2
    1.192548    6.662983    54.670376    1
    0.698321    5.860011    55.01088    2
    0.699287    7.461191    55.021722    2
    -0.114078    4.441478    55.540639    1
    -0.119972    4.439861    56.530724    2
    -1.085183    4.441291    55.260662    2
    -0.097508    -0.019585    22.199623    1
    0.422836    0.786161    22.483178    2
    0.431348    -0.818422    22.491904    2
    1.265599    2.214291    23.000436    1
    2.217077    2.235846    22.684802    2
    1.278014    2.213629    24.002102    2
    1.215527    2.216964    25.730479    1
    0.715102    1.413456    26.064457    2
    0.709801    3.021509    26.052095    2
    -0.078891    0.00349    26.636542    1
    -0.080989    0.005124    27.637999    2
    -1.042305    -0.000539    26.347911    2
    -0.067397    0.001836    29.368463    1
    0.430143    0.806872    29.702887    2
    0.430626    -0.804219    29.699356    2
    1.218343    2.22657    30.248932    1
    2.179686    2.222095    29.952576    2
    1.224663    2.228463    31.24993    2
    1.204066    2.22194    32.98485    1
    0.705962    1.416563    33.317194    2
    0.705827    3.026146    33.320176    2
    -0.087506    -0.000105    33.87153    1
    -0.095463    -0.000297    34.872604    2
    -1.048181    0.00017    33.572749    2
    -0.071605    0.000199    36.605325    1
    0.427681    0.805317    36.936871    2
    0.427758    -0.804823    36.936996    2
    1.221431    2.220379    37.48768    1
    2.182582    2.220315    37.189618    2
    1.228984    2.22035    38.488768    2
    1.204305    2.220265    40.220101    1
    0.704925    1.41514    40.551501    2
    0.704894    3.025342    40.551565    2
    -0.08879    0.000237    41.102454    1
    -0.096246    0.000218    42.103582    2
    -1.049939    0.000275    40.804393    2
    -0.071595    0.000245    43.834367    1
    0.427413    0.805302    44.166406    2
    0.427462    -0.804744    44.166483    2
    1.220984    2.220359    44.718684    1
    2.181848    2.220294    44.420038    2
    1.228911    2.220656    45.719891    2
    1.203959    2.220603    47.449882    1
    0.704366    1.415079    47.78026    2
    0.704426    3.025588    47.781548    2
    -0.089854    0.000464    48.328529    1
    -0.099325    0.000892    49.329693    2
    -1.050712    0.00041    48.029458    2
    -0.078785    0.000939    51.059558    1
    0.421693    0.805589    51.390502    2
    0.421613    -0.804456    51.38895    2
    1.2153    2.218698    51.942349    1
    2.176938    2.219778    51.645823    2
    1.220564    2.215972    52.94315    2
    1.196617    2.217093    54.676058    1
    0.703453    1.41849    55.026043    2
    0.700465    3.019661    55.014245    2
    -0.114481    -0.002095    55.570918    1
    -0.120144    -0.001947    56.557596    2
    -1.084644    0.00089    55.287044    2
%endblock AtomicCoordinatesAndAtomicSpecies
